 vasp.6.3.2 27Jun22 (build Jan 03 2024 23:05:41) complex

 executed on           IFC15_impi date 2024.08.07  04:32:11

 INCAR:
   ENCUT = 600.00
   EDIFF = 1.00e-06
   ALGO = Normal
   ISMEAR = -5
   LORBIT = 11
   ICHARG = 11
   EMIN = -8.
   EMAX = 5.
   NEDOS = 3000
   LCHARG = .TRUE.
   LWAVE = .FALSE.
   LREAL = Auto
   NELM = 2000
   NCORE = 16
   KPAR = 8
   ISPIN = 2
   GGA = MK
   PARAM1 = 0.1234
   PARAM2 = 1.0
   AGGAC = 0.0
   LUSE_VDW = .TRUE.
   LASPH = .TRUE.
   LDIPOL = .TRUE.
   DIPOL = 0.5 0.5 0.5
   IDIPOL = 3

 POTCAR:    PAW_PBE Mo_sv 02Feb2006
 POTCAR:    PAW_PBE S 06Sep2000
|           W    W    AA    RRRRR   N    N  II  N    N   GGGG   !!!           |
|           W    W   A  A   R    R  NN   N  II  NN   N  G    G  !!!           |
|           W    W  A    A  R    R  N N  N  II  N N  N  G       !!!           |
|           W WW W  AAAAAA  RRRRR   N  N N  II  N  N N  G  GGG   !            |
|           WW  WW  A    A  R   R   N   NN  II  N   NN  G    G                |
|           W    W  A    A  R    R  N    N  II  N    N   GGGG   !!!           |
|     You use a magnetic or noncollinear calculation, but did not specify     |
|     the initial magnetic moment with the MAGMOM tag. Note that a            |
|     default of 1 will be used for all atoms. This ferromagnetic setup       |
|     may break the symmetry of the crystal, in particular it may rule        |
|     out finding an antiferromagnetic solution. Thence, we recommend         |
|     setting the initial magnetic moment manually or verifying carefully     |
|     that this magnetic setup is desired.                                    |

   TITEL  = PAW_PBE Mo_sv 02Feb2006
   POMASS =   95.940; ZVAL   =   14.000    mass and valenz
   ENMAX  =  242.676; ENMIN  =  182.007 eV

   TITEL  = PAW_PBE S 06Sep2000
   POMASS =   32.066; ZVAL   =    6.000    mass and valenz
   ENMAX  =  258.689; ENMIN  =  194.016 eV

 Optimization of the real space projectors (new method)

 maximal supplied QI-value         = 15.12
 optimisation between [QCUT,QGAM] = [ 12.55, 25.10] = [ 44.09,176.36] Ry
 Optimized for a Real-space Cutoff    1.47 Angstroem

   l    n(q)    QCUT    max X(q) W(low)/X(q) W(high)/X(q)  e(spline)
   0     11    12.548     3.559    0.18E-04    0.60E-05    0.19E-06
   0     11    12.548    20.730    0.37E-04    0.13E-04    0.98E-07
   1     11    12.548     3.279    0.80E-06    0.70E-06    0.27E-07
   1     11    12.548     4.693    0.72E-04    0.11E-03    0.38E-06
   2     10    12.548    67.616    0.34E-03    0.45E-03    0.54E-06
   2     10    12.548    62.420    0.34E-03    0.45E-03    0.54E-06
 Optimization of the real space projectors (new method)

 maximal supplied QI-value         = 19.84
 optimisation between [QCUT,QGAM] = [ 12.50, 25.00] = [ 43.76,175.03] Ry
 Optimized for a Real-space Cutoff    1.06 Angstroem

   l    n(q)    QCUT    max X(q) W(low)/X(q) W(high)/X(q)  e(spline)
   0      8    12.501   187.594    0.26E-03    0.17E-03    0.97E-07
   0      8    12.501   164.243    0.26E-03    0.17E-03    0.96E-07
   1      7    12.501    67.533    0.50E-03    0.61E-03    0.91E-07
   1      7    12.501    50.729    0.48E-03    0.60E-03    0.90E-07
|               ----> ADVICE to this user running VASP <----                  |
|     You enforced a specific xc type in the INCAR file but a different       |
|     type was found in the POTCAR file.                                      |
|     I HOPE YOU KNOW WHAT YOU ARE DOING!                                     |

  PAW_PBE Mo_sv 02Feb2006               :
  PAW_PBE S 06Sep2000                   :

 POSCAR: Mo  S
  positions in direct lattice
  velocities in cartesian coordinates
 exchange correlation table for  LEXCH =       43
   RHO(1)=    0.500       N(1)  =     2000
   RHO(2)=  100.500       N(2)  =     4000

 VTST: version 4.1, (05/19/21)

 CHAIN: initializing optimizer

 OPT: Using VASP Dynamics algorithm
 CHAIN: Read ICHAIN            0

 POSCAR: Mo  S
  positions in direct lattice
  velocities in cartesian coordinates

 ion  position               nearest neighbor table
   1  0.133  0.067  0.500- 144 2.41 141 2.41 162 2.41 138 2.41 159 2.41 147 2.41  49 3.16  62 3.16
                            71 3.16  20 3.16  67 3.16  72 3.16
   2  0.665  0.731  0.669- 193 2.39 117 2.39 196 2.41 114 2.41 108 2.41 106 2.42  37 3.14  42 3.14
                            55 3.16  32 3.16   8 3.19  64 3.19
   3  0.267  0.934  0.671- 149 2.41 140 2.41 215 2.41 218 2.41 143 2.41 155 2.41  74 3.17  28 3.17
                             9 3.17  51 3.17  50 3.17  25 3.17
   4  0.267  0.933  0.330- 148 2.41 217 2.41 142 2.41 146 2.41 214 2.41 139 2.41  10 3.16  52 3.16
                            75 3.16  29 3.16  70 3.16  24 3.16
   5  0.333  0.867  0.500- 197 2.41 216 2.41 210 2.41 136 2.41 213 2.41 207 2.41  72 3.16  53 3.16
                            71 3.16  12 3.16  30 3.16  23 3.16
   6  0.733  0.867  0.500-  76 2.41 100 2.41 119 2.41 110 2.41  89 2.41 116 2.41  34 3.16  46 3.16
                            30 3.16  67 3.16  22 3.16  49 3.16
   7  0.667  0.933  0.330-  94 2.41 201 2.41 105 2.41 198 2.41 107 2.41  97 2.41  11 3.16  29 3.16
                            33 3.16  26 3.16  16 3.16  63 3.16
   8  0.666  0.933  0.670- 134 2.41 199 2.41 106 2.41 108 2.41  96 2.41  93 2.41  28 3.16  64 3.16
                            32 3.17  17 3.17  27 3.18   2 3.19
   9  0.267  0.733  0.671- 212 2.41 157 2.41 215 2.41 137 2.41 218 2.41 209 2.41  56 3.17  28 3.17
                            51 3.17   3 3.17  32 3.17  13 3.17
  10  0.267  0.733  0.330- 211 2.41 145 2.41 217 2.41 208 2.41 214 2.41 158 2.41   4 3.16  52 3.16
                            29 3.16  57 3.16  33 3.16  14 3.16
  11  0.667  0.733  0.330- 195 2.41 115 2.41 105 2.41 107 2.41 192 2.41 118 2.41   7 3.16  63 3.16
                            38 3.16  41 3.16  33 3.16  69 3.16
  12  0.333  0.667  0.500- 210 2.41 191 2.41 179 2.41 204 2.41 194 2.41 207 2.41   5 3.16  53 3.16
                            30 3.16  59 3.16  34 3.16  15 3.16
  13  0.268  0.533  0.670- 212 2.40 209 2.41 173 2.41 176 2.41 206 2.42 181 2.43  32 3.15  18 3.16
                            60 3.17   9 3.17  56 3.18  37 3.20
  14  0.267  0.533  0.330- 211 2.41 205 2.41 175 2.41 172 2.41 180 2.41 208 2.41  33 3.16  10 3.16
                            38 3.16  57 3.16  61 3.16  19 3.16
  15  0.333  0.467  0.500- 186 2.41 153 2.41 179 2.41 204 2.41 188 2.41 150 2.41  20 3.16  62 3.16
                            39 3.16  59 3.16  34 3.16  12 3.16
  16  0.867  0.133  0.330-  90 2.41  94 2.41 124 2.41 132 2.41 102 2.41  97 2.41  26 3.16  66 3.16
                            63 3.16  47 3.16   7 3.16  61 3.16
  17  0.867  0.133  0.670- 104 2.41  96 2.41  88 2.41  91 2.41  93 2.41 122 2.41  65 3.17  60 3.17
                            27 3.17  64 3.17  48 3.17   8 3.17
  18  0.269  0.335  0.669- 152 2.39 181 2.39 178 2.41 206 2.41 170 2.41 167 2.42  43 3.14  37 3.14
                            50 3.16  13 3.16  65 3.19  60 3.19
  19  0.267  0.333  0.330- 205 2.41 154 2.41 169 2.41 166 2.41 180 2.41 151 2.41  61 3.16  66 3.16
                            38 3.16  44 3.16  14 3.16  70 3.16
  20  0.333  0.267  0.500- 202 2.41 153 2.41 144 2.41 147 2.41 183 2.41 150 2.41  15 3.16  62 3.16
                            39 3.16   1 3.16  45 3.16  71 3.16
  21  0.933  0.267  0.500-  80 2.41 123 2.41 165 2.41 131 2.41  81 2.41 168 2.41  59 3.16  73 3.16
                            62 3.16  31 3.16  49 3.17  22 3.17
  22  0.733  0.067  0.500-  80 2.41 101 2.41 110 2.41 131 2.41  95 2.41  76 2.41  23 3.16  30 3.16
                            31 3.16   6 3.16  21 3.17  49 3.17
  23  0.533  0.067  0.500- 219 2.41 136 2.41  95 2.41 197 2.41 101 2.41 222 2.41  22 3.16  31 3.16
                            71 3.16  45 3.16  30 3.16   5 3.16
  24  0.467  0.133  0.330- 148 2.41 184 2.41 203 2.41 220 2.41 200 2.41 146 2.41  70 3.16   4 3.16
                            44 3.16  29 3.16  26 3.16  35 3.16
  25  0.467  0.134  0.670- 149 2.40 155 2.41 221 2.41 223 2.41 185 2.42 182 2.43  50 3.15  36 3.16
                            27 3.17   3 3.17  28 3.18  43 3.20
  26  0.667  0.133  0.330-  94 2.41 203 2.41  84 2.41 220 2.41  78 2.41  97 2.41  35 3.16  29 3.16
                            24 3.16   7 3.16  16 3.16  47 3.16
  27  0.666  0.134  0.670- 223 2.41 221 2.41  79 2.41  85 2.41  96 2.41  93 2.41  28 3.16  48 3.16
                            25 3.17  17 3.17   8 3.18  36 3.19
  28  0.467  0.933  0.671- 215 2.41 218 2.41 134 2.41 223 2.41 199 2.41 221 2.41   8 3.16  27 3.16
                             9 3.17   3 3.17  32 3.18  25 3.18
  29  0.467  0.933  0.330- 201 2.41 203 2.41 217 2.41 214 2.41 198 2.41 220 2.41  10 3.16   4 3.16
                             7 3.16  26 3.16  33 3.16  24 3.16
  30  0.533  0.867  0.500- 191 2.41 136 2.41  76 2.41 197 2.41 110 2.41 194 2.41  22 3.16   6 3.16
                            12 3.16  34 3.16  23 3.16   5 3.16
  31  0.733  0.267  0.500-  81 2.41  95 2.41  77 2.41 123 2.41 101 2.41  87 2.41  40 3.16  45 3.16
                            23 3.16  73 3.16  22 3.16  21 3.16
  32  0.467  0.732  0.670- 212 2.40 209 2.41 199 2.41 134 2.41 196 2.42 193 2.43  13 3.15   2 3.16
                             8 3.17   9 3.17  28 3.18  37 3.20
  33  0.467  0.733  0.330- 211 2.41 195 2.41 201 2.41 198 2.41 192 2.41 208 2.41  14 3.16  10 3.16
                            38 3.16  29 3.16   7 3.16  11 3.16
  34  0.533  0.667  0.500- 186 2.41 116 2.41 191 2.41 194 2.41 188 2.41 119 2.41  46 3.16   6 3.16
                            39 3.16  30 3.16  15 3.16  12 3.16
  35  0.667  0.333  0.330- 184 2.41 127 2.41  84 2.41  78 2.41 200 2.41 130 2.41  26 3.16  47 3.16
                            44 3.16  41 3.16  24 3.16  68 3.16
  36  0.665  0.335  0.669- 129 2.39 182 2.39 185 2.41 126 2.41  85 2.41  79 2.42  43 3.14  42 3.14
                            25 3.16  58 3.16  48 3.19  27 3.19
  37  0.469  0.531  0.668- 190 2.37 196 2.39 206 2.39 181 2.40 193 2.40  42 3.06  43 3.06  18 3.14
                             2 3.14  13 3.20  32 3.20
  38  0.467  0.533  0.330- 195 2.41 205 2.41 189 2.41 135 2.41 180 2.41 192 2.41  41 3.16  44 3.16
                            11 3.16  19 3.16  14 3.16  33 3.16
  39  0.533  0.467  0.500- 186 2.41 133 2.41 202 2.41 188 2.41 183 2.41 128 2.41  15 3.16  34 3.16
                            20 3.16  46 3.16  45 3.16  40 3.16
  40  0.733  0.467  0.500- 133 2.41  87 2.41 109 2.41 113 2.41 128 2.41  77 2.41  45 3.16  31 3.16
                            39 3.16  73 3.16  46 3.16  54 3.16
  41  0.667  0.533  0.330- 127 2.41 115 2.41 189 2.41 135 2.41 130 2.41 118 2.41  38 3.16  44 3.16
                            35 3.16  11 3.16  68 3.16  69 3.16
  42  0.662  0.531  0.668- 190 2.37 126 2.39 114 2.39 129 2.40 117 2.40  37 3.06  43 3.06  36 3.14
                             2 3.14  58 3.20  55 3.20
  43  0.469  0.338  0.668- 190 2.37 185 2.39 178 2.39 182 2.40 152 2.40  37 3.06  42 3.06  36 3.14
                            18 3.14  25 3.20  50 3.20
  44  0.467  0.333  0.330- 184 2.41 154 2.41 189 2.41 135 2.41 200 2.41 151 2.41  38 3.16  41 3.16
                            35 3.16  19 3.16  24 3.16  70 3.16
[...]
  245              crrexp_mul_wave                       6.893607                2580480   6
  246              rpromu_gemm                           7.155199                 645120   6
  247              m_sumb_d                              1.236439                  11520   6
  248          m_sumb_d                              0.631277                         10   4
  249        m_sumb_d                              0.001309                            7   3
  250        fft3d_mpi                             1.034788                           82   3
  251          fftbrc_mpi                            0.973239                         82   4
  252            fftbas_plan_mpi                       0.973009                       82   5
  253              dfftw_execute                         0.307922                    246   6
  254              map_forward                           0.294513                     80   6
  255                map_gather                            0.085835                   40   7
  256                m_alltoallv_z                         0.170768                   40   7
  257                map_scatter                           0.037148                   40   7
  258              map_backward                          0.317056                     84   6
  259                map_gather                            0.033932                   42   7
  260                m_alltoallv_z                         0.173843                   42   7
  261                map_scatter                           0.108314                   42   7
  262        forhar                                2.370516                            2   3
  263          m_sumb_d                              0.024911                          2   4
  264        strehar                               0.022442                            1   3
  265          m_sumb_d                              0.005370                          1   4
  266        chggra                                0.059200                            1   3
  267          fft3d_mpi                             0.039381                          3   4
  268            fftbrc_mpi                            0.037198                        3   5
  269              fftbas_plan_mpi                       0.037189                      3   6
  270                dfftw_execute                         0.011388                    9   7
  271                map_backward                          0.006596                    2   7
  272                  map_gather                            0.000837                  1   8
  273                  m_alltoallv_z                         0.003144                  1   8
  274                  map_scatter                           0.002590                  1   8
  275                map_forward                           0.017157                    4   7
  276                  map_gather                            0.004426                  2   8
  277                  m_alltoallv_z                         0.010881                  2   8
  278                  map_scatter                           0.001805                  2   8
  279          m_sumb_d                              0.000159                          2   4
  280          pothar                                0.006307                          1   4
  281            m_sumb_d                              0.000566                        1   5
  282        m_bcast_d                             0.037448                            2   3
  283      potlok                               10.365973                              1   2
  284        fft3d_mpi                             1.140477                           86   3
  285          fftbrc_mpi                            1.076182                         86   4
  286            fftbas_plan_mpi                       1.075952                       86   5
  287              dfftw_execute                         0.318782                    258   6
  288              map_forward                           0.393424                     88   6
  289                map_gather                            0.089747                   46   7
  290                m_alltoallv_z                         0.263053                   46   7
  291                map_scatter                           0.039677                   46   7
  292              map_backward                          0.308475                     84   6
  293                map_gather                            0.033991                   42   7
  294                m_alltoallv_z                         0.165975                   42   7
  295                map_scatter                           0.107448                   42   7
  296        m_sumb_d                              0.004794                            8   3
  297        fewald                                0.001781                            2   3
  298          rsp                                   0.001590                          2   4
  299          rcp                                   0.000163                          2   4
  300        pothar                                0.003724                            1   3
  301          m_sumb_d                              0.001032                          1   4
  302        m_bcast_d                             0.004609                            2   3
  303      potlok_metagga                        0.000011                              1   2
  304      set_dd_magatom                        0.000001                              1   2
  305      set_dd_paw                            2.845965                              1   2
  306        set_rsgf_all                          0.000002                            1   3
  307        m_sumb_d                              2.845666                            8   3
  308      densta                             5233.374585                              1   2
  309        m_bcast_z                             0.000880                            1   3

 Flat profile

 densta                               5273.522070          11
 total_time                           2231.736158           1
 ggemm                                1608.366586       27724
 orth1                                 544.635270       64132
 eddav                                 415.062075          10
 dfftw_execute                         290.533761      399072
 m_sumb_d                              202.434704      269535
 sphpro_fast                           196.810982           2
 m_bcast_z                             161.892643       59749
 m_alltoall_d                          109.506139      317736
 lincom                                 81.328178          44
 m_alltoallv_z                          78.285598      133030
 fftbas_plan_mpi                        73.089683      133024
 map_scatter                            65.519620      133030
 map_gather                             64.238587      133030
 fftwav_mpi                             48.732588       90108
 crrexp_mul_work_add                    37.289324     9553152
 gemm                                   34.226123     4776576
 rpromu_gemm                            33.772268     4274816
 map_forward                            31.780422      180486
 crrexp_mul_wave                        27.911005    10413312
 vhamil                                 25.375026       42648
 rpromu                                 22.017167       19084
 racc0mu                                21.553792       21324
 potlok                                 19.745867           2
 lapack                                 16.677632       21324
 redis_pw                               11.049851      115232
 force_and_stress                        9.312917           1
 w1_copy                                 8.691634      127944
 eccp                                    7.482857       12800
 fftext_mpi                              7.324517       42648
 kinhamil                                3.309531       42648
 m_bcast_d                               2.739629       43555
 overl                                   2.566877       72500
 apply_precond                           2.375630       29848
 forhar                                  2.345605           2
 setup_precond                           2.304734       12800
 redis_proj                              2.132092      145084
 set_charge                              1.757664           1
 setdij_                                 1.470502          29
 stufak                                  1.449428           2
 forloc                                  1.191061           1
 choleski                                1.112887           4
 overl1                                  1.085629       42648
 map_backward                            0.811325       85562
 fft3d_mpi                               0.742023      133024
 phaser                                  0.658161          66
 elmin                                   0.616880           1
 hamiltmu                                0.574094       21324
 pw_charge                               0.527706         972
 newband                                 0.522788       21364
 rspher_all                              0.456943          14
 fftbas_mpi                              0.408294      132756
 inisym                                  0.361099           1
 raccmu_                                 0.244656       21324
 strnlr                                  0.209512           1
 rpro_isp                                0.130082          26
 strkin                                  0.126972           1
 w1_projall                              0.112632       14924
 augmentation_charge                     0.093778           1
 fornlr                                  0.069112           1
 truncate_high_frequency_w1              0.054805       55448
 orthch                                  0.031389           1
 strelo                                  0.021975           1
 soft_charge                             0.019722           1
 strehar                                 0.017072           1
 depsum                                  0.015305           1
 chggra                                  0.013353           1
 pothar                                  0.011147           3
 rsp                                     0.009921           5
 fewald                                  0.007274           5
 set_dd_paw                              0.002108           3
 posmap                                  0.001913           2
 rcp                                     0.000848           5
 fftbrc_mpi                              0.000753         268
 fft_gq                                  0.000451           1
 set_dd_magatom                          0.000391           3
 fordep                                  0.000297           1
 crpa_reader                             0.000252           1
 proall                                  0.000135           1
 set_rsgf_all                            0.000041           3
 vectorpot                               0.000029           2
 potlok_metagga                          0.000023           2
 rotate_active_occupied_orbital          0.000014           1
 redis_pw_over_bands                     0.000001           1
  summed up times    11792.6215908527

 Accumulative profile

 total_time                          11792.621591           1
 densta                               5273.531272          11
 elmin                                3658.658975           1
 eddav                                3602.859192          10
 ggemm                                1608.366586       27724
 fft3d_mpi                             605.410066      133024
 fftbas_plan_mpi                       604.258996      133024
 fftbas_mpi                            601.358659      132756
 orth1                                 544.635270       64132
 fftwav_mpi                            473.062339       90108
 hamiltmu                              314.396621       21324
 dfftw_execute                         290.533761      399072
 m_sumb_d                              202.434704      269535
 sphpro_fast                           199.629937           2
 kinhamil                              188.206419       42648
 fftext_mpi                            184.896888       42648
 map_forward                           177.998231      180486
 m_bcast_z                             161.892643       59749
 force_and_stress                      133.077209           1
 rpro_isp                              113.841287          26
 m_alltoall_d                          109.506139      317736
 raccmu_                               100.241081       21324
 racc0mu                                98.910796       21324
 redis_pw                               92.352780      115232
 newband                                91.033920       21364
 rpromu                                 89.558453       19084
 lincom                                 81.328178          44
 strnlr                                 80.133490           1
 m_alltoallv_z                          78.285598      133030
 map_scatter                            65.519620      133030
 map_gather                             64.238587      133030
 map_backward                           62.637321       85562
 w1_projall                             60.435449       14924
 crrexp_mul_work_add                    37.289324     9553152
 gemm                                   34.226123     4776576
 rpromu_gemm                            33.772268     4274816
 redis_proj                             30.335303      145084
 crrexp_mul_wave                        27.911005    10413312
 fornlr                                 26.713961           1
 vhamil                                 25.375026       42648
 potlok                                 22.083941           2
 lapack                                 16.677632       21324
 orthch                                 12.213656           1
 proall                                  8.736897           1
 set_dd_paw                              8.703660           3
 w1_copy                                 8.691634      127944
 eccp                                    8.302819       12800
 set_charge                              7.678862           1
 soft_charge                             5.654033           1
 fftbrc_mpi                              3.309384         268
 setup_precond                           2.745641       12800
 m_bcast_d                               2.739629       43555
 overl                                   2.566877       72500
 apply_precond                           2.375630       29848
 forhar                                  2.370516           2
 setdij_                                 1.594943          29
 stufak                                  1.449428           2
 forloc                                  1.208022           1
 choleski                                1.112887           4
 overl1                                  1.085629       42648
 phaser                                  0.658161          66
 fewald                                  0.593279           5
 pw_charge                               0.527706         972
 rspher_all                              0.456943          14
 inisym                                  0.363012           1
 fordep                                  0.329280           1
 strkin                                  0.135223           1
 augmentation_charge                     0.123312           1
 chggra                                  0.059200           1
 truncate_high_frequency_w1              0.054805       55448
 depsum                                  0.028315           1
 strelo                                  0.022716           1
 strehar                                 0.022442           1
 fft_gq                                  0.014204           1
 pothar                                  0.014096           3
 rsp                                     0.009921           5
 posmap                                  0.001913           2
 rcp                                     0.000848           5
 set_dd_magatom                          0.000391           3
 crpa_reader                             0.000252           1
 set_rsgf_all                            0.000041           3
 vectorpot                               0.000029           2
 potlok_metagga                          0.000023           2
 rotate_active_occupied_orbital          0.000014           1
 redis_pw_over_bands                     0.000001           1

Profiling took  15.891798  9.646865  0.008578  0.007932 seconds
Profiling took  15.026733 seconds