 vasp.6.3.2 27Jun22 (build Jul 18 2024 17:50:03) complex
 executed on              LinuxNV date 2024.08.13  05:29:57

 INCAR:
   ENCUT = 600.00
   EDIFF = 1.00e-06
   EDIFFG = -0.03
   IBRION = 2
   ALGO = Normal
   ISMEAR = 0
   SIGMA = 0.05
   LCHARG = .FALSE.
   LWAVE = .FALSE.
   LREAL = Auto
   NELM = 2000
   NSW = 5000
   NCORE = 16
   KPAR = 4
   ISPIN = 2
   GGA = MK
   PARAM1 = 0.1234
   PARAM2 = 1.0
   AGGAC = 0.0
   LUSE_VDW = .TRUE.
   LASPH = .TRUE.
   LDIPOL = .TRUE.
   DIPOL = 0.5 0.5 0.5
   IDIPOL = 3

 POTCAR:    PAW_PBE Mo_sv 02Feb2006
 POTCAR:    PAW_PBE S 06Sep2000
 POTCAR:    PAW_PBE C 08Apr2002
 POTCAR:    PAW_PBE H 15Jun2001
|           W    W    AA    RRRRR   N    N  II  N    N   GGGG   !!!           |
|           W    W   A  A   R    R  NN   N  II  NN   N  G    G  !!!           |
|           W    W  A    A  R    R  N N  N  II  N N  N  G       !!!           |
|           W WW W  AAAAAA  RRRRR   N  N N  II  N  N N  G  GGG   !            |
|           WW  WW  A    A  R   R   N   NN  II  N   NN  G    G                |
|           W    W  A    A  R    R  N    N  II  N    N   GGGG   !!!           |
|     You use a magnetic or noncollinear calculation, but did not specify     |
|     the initial magnetic moment with the MAGMOM tag. Note that a            |
|     default of 1 will be used for all atoms. This ferromagnetic setup       |
|     may break the symmetry of the crystal, in particular it may rule        |
|     out finding an antiferromagnetic solution. Thence, we recommend         |
|     setting the initial magnetic moment manually or verifying carefully     |
|     that this magnetic setup is desired.                                    |

   TITEL  = PAW_PBE Mo_sv 02Feb2006
   POMASS =   95.940; ZVAL   =   14.000    mass and valenz
   ENMAX  =  242.676; ENMIN  =  182.007 eV

   TITEL  = PAW_PBE S 06Sep2000
   POMASS =   32.066; ZVAL   =    6.000    mass and valenz
   ENMAX  =  258.689; ENMIN  =  194.016 eV

   TITEL  = PAW_PBE C 08Apr2002
   POMASS =   12.011; ZVAL   =    4.000    mass and valenz
   ENMAX  =  400.000; ENMIN  =  300.000 eV

   TITEL  = PAW_PBE H 15Jun2001
   POMASS =    1.000; ZVAL   =    1.000    mass and valenz
   ENMAX  =  250.000; ENMIN  =  200.000 eV

 Optimization of the real space projectors (new method)

 maximal supplied QI-value         = 15.12
 optimisation between [QCUT,QGAM] = [ 12.55, 25.10] = [ 44.09,176.36] Ry
 Optimized for a Real-space Cutoff    1.47 Angstroem

   l    n(q)    QCUT    max X(q) W(low)/X(q) W(high)/X(q)  e(spline)
   0     11    12.548     3.559    0.18E-04    0.60E-05    0.19E-06
   0     11    12.548    20.730    0.37E-04    0.13E-04    0.98E-07
   1     11    12.548     3.279    0.80E-06    0.70E-06    0.27E-07
   1     11    12.548     4.693    0.72E-04    0.11E-03    0.38E-06
   2     10    12.548    67.616    0.34E-03    0.45E-03    0.54E-06
   2     10    12.548    62.420    0.34E-03    0.45E-03    0.54E-06
 Optimization of the real space projectors (new method)

[...]

   l    n(q)    QCUT    max X(q) W(low)/X(q) W(high)/X(q)  e(spline)
   0      8    12.315   115.676    0.34E-03    0.18E-03    0.23E-06
   0      8    12.315    87.132    0.34E-03    0.18E-03    0.22E-06
   1      7    12.315     4.429    0.45E-03    0.12E-03    0.18E-06
   1      7    12.315     2.733    0.35E-03    0.97E-04    0.15E-06
 Optimization of the real space projectors (new method)

 maximal supplied QI-value         = 34.20
 optimisation between [QCUT,QGAM] = [ 12.31, 24.97] = [ 42.46,174.58] Ry
 Optimized for a Real-space Cutoff    1.00 Angstroem

   l    n(q)    QCUT    max X(q) W(low)/X(q) W(high)/X(q)  e(spline)
   0      7    12.313    19.460    0.14E-03    0.42E-03    0.16E-06
   0      7    12.313    12.209    0.12E-03    0.40E-03    0.16E-06
   1      7    12.313     4.655    0.33E-03    0.59E-03    0.89E-07
|               ----> ADVICE to this user running VASP <----                  |
|     You enforced a specific xc type in the INCAR file but a different       |
|     type was found in the POTCAR file.                                      |
|     I HOPE YOU KNOW WHAT YOU ARE DOING!                                     |

  PAW_PBE Mo_sv 02Feb2006               :
  PAW_PBE S 06Sep2000                   :
  PAW_PBE C 08Apr2002                   :
  PAW_PBE H 15Jun2001                   :

 POSCAR: Mo S  C  H
  positions in direct lattice
  velocities in cartesian coordinates
 exchange correlation table for  LEXCH =       43
   RHO(1)=    0.500       N(1)  =     2000
   RHO(2)=  100.500       N(2)  =     4000

 VTST: version 4.1, (05/19/21)

 CHAIN: initializing optimizer

 OPT: Using VASP Conjugate-Gradient optimizer
 CHAIN: Read ICHAIN             0

 POSCAR: Mo S  C  H
  positions in direct lattice
  velocities in cartesian coordinates

 ion  position               nearest neighbor table
   1  0.132  0.064  0.500- 138 2.41 144 2.41 162 2.41 159 2.41 141 2.41 147 2.41  71 3.16  20 3.16
                            67 3.16  72 3.16  62 3.17  49 3.17
   2  0.666  0.731  0.671- 106 2.40 114 2.41 196 2.41 108 2.41 193 2.41 117 2.41   8 3.15  64 3.16
                            37 3.16  55 3.17  42 3.17  32 3.18
   3  0.265  0.929  0.670- 155 2.40 143 2.41 215 2.41 218 2.41 140 2.41 149 2.41  25 3.16   9 3.16
                            74 3.16  51 3.16  50 3.17  28 3.17
   4  0.266  0.932  0.330- 217 2.41 148 2.41 142 2.41 146 2.41 214 2.41 139 2.41  75 3.16  24 3.16
                            52 3.16  70 3.16  10 3.16  29 3.17
   5  0.332  0.864  0.500- 136 2.41 210 2.41 197 2.41 213 2.41 207 2.41 216 2.41  53 3.16  72 3.16
                            12 3.16  71 3.16  23 3.17  30 3.17
   6  0.732  0.864  0.500- 116 2.41 110 2.41  76 2.41  89 2.41 100 2.41 119 2.41  46 3.16  30 3.16
                            49 3.16  34 3.16  22 3.16  67 3.16
   7  0.666  0.931  0.330- 201 2.41  97 2.41  94 2.41 105 2.41 198 2.41 107 2.41  11 3.16  63 3.16
                            16 3.16  33 3.16  26 3.16  29 3.17
   8  0.666  0.930  0.670-  96 2.41 108 2.41 199 2.41  93 2.41 106 2.41 134 2.41   2 3.15  27 3.15
                            17 3.16  28 3.16  64 3.17  32 3.17
   9  0.265  0.729  0.670- 209 2.40 215 2.41 137 2.41 157 2.41 218 2.41 212 2.41  32 3.15   3 3.16
                            13 3.16  56 3.16  51 3.17  28 3.17
  10  0.266  0.732  0.330- 211 2.41 217 2.41 145 2.41 158 2.41 208 2.41 214 2.41  57 3.16  52 3.16
                            14 3.16   4 3.16  29 3.16  33 3.17
  11  0.666  0.732  0.330- 195 2.41 118 2.41 115 2.41 105 2.41 192 2.41 107 2.41   7 3.16  38 3.16
                            69 3.16  63 3.16  41 3.16  33 3.17
  12  0.332  0.664  0.500- 179 2.41 204 2.41 207 2.41 191 2.41 194 2.41 210 2.41  30 3.16  59 3.16
                            15 3.16   5 3.16  34 3.16  53 3.16
  13  0.266  0.530  0.671- 206 2.40 209 2.41 173 2.41 176 2.41 181 2.41 212 2.41   9 3.16  32 3.16
                            60 3.17  56 3.17  18 3.17  37 3.18
  14  0.266  0.532  0.330- 211 2.41 205 2.41 172 2.41 175 2.41 208 2.41 180 2.41  10 3.16  61 3.16
                            57 3.16  33 3.16  38 3.16  19 3.16
  15  0.332  0.464  0.500- 153 2.41 186 2.41 188 2.41 204 2.41 150 2.41 179 2.41  39 3.16  59 3.16
                            12 3.16  34 3.16  20 3.16  62 3.17
  16  0.866  0.132  0.330-  90 2.41 124 2.41 132 2.41  97 2.41  94 2.41 102 2.41  26 3.16   7 3.16
                            47 3.16  66 3.16  61 3.17  63 3.17
  17  0.866  0.130  0.670- 122 2.41  96 2.41 104 2.41  88 2.41  91 2.41  93 2.41  64 3.16  48 3.16
                            27 3.16   8 3.16  60 3.16  65 3.17
  18  0.267  0.330  0.671- 152 2.39 206 2.39 167 2.41 170 2.41 181 2.41 178 2.43  50 3.16  65 3.17
                            13 3.17  60 3.17  37 3.18  43 3.23
  19  0.266  0.332  0.330- 154 2.41 166 2.41 169 2.41 205 2.41 180 2.41 151 2.41  44 3.16  38 3.16
                            66 3.16  14 3.16  70 3.17  61 3.17
  20  0.332  0.264  0.500- 153 2.41 202 2.41 183 2.41 144 2.41 150 2.41 147 2.41   1 3.16  39 3.16
                            62 3.16  15 3.16  45 3.16  71 3.17
  21  0.932  0.264  0.500- 168 2.41 123 2.41 131 2.41  81 2.41 165 2.41  80 2.41  31 3.16  73 3.16
                            62 3.16  49 3.16  22 3.16  59 3.17
  22  0.732  0.064  0.500-  80 2.41 131 2.41 101 2.41  76 2.41 110 2.41  95 2.41  23 3.16  30 3.16
                             6 3.16  31 3.16  21 3.16  49 3.17
  23  0.532  0.064  0.500- 219 2.41 136 2.41 101 2.41 197 2.41 222 2.41  95 2.41  22 3.16  45 3.16
                            31 3.17  71 3.17   5 3.17  30 3.17
  24  0.466  0.131  0.330- 184 2.41 203 2.41 200 2.41 148 2.41 146 2.41 220 2.41  70 3.16   4 3.16
                            35 3.16  29 3.16  44 3.17  26 3.17
  25  0.466  0.128  0.669- 182 2.40 223 2.40 221 2.41 155 2.41 149 2.41 185 2.42  43 3.09  28 3.14
                            36 3.15  27 3.16   3 3.16  50 3.18
  26  0.666  0.131  0.330- 203 2.41  84 2.41  78 2.41  97 2.41 220 2.41  94 2.41  16 3.16  29 3.16
                             7 3.16  35 3.17  47 3.17  24 3.17
  27  0.666  0.129  0.670-  93 2.40 221 2.41  79 2.41  96 2.41 223 2.41  85 2.41  36 3.15   8 3.15
                            25 3.16  17 3.16  48 3.16  28 3.17
  28  0.466  0.929  0.670- 199 2.40 221 2.40 223 2.40 134 2.41 215 2.41 218 2.41  25 3.14  32 3.14
                             8 3.16  27 3.17   9 3.17   3 3.17
  29  0.466  0.931  0.330- 201 2.41 217 2.41 203 2.41 220 2.41 198 2.41 214 2.41  33 3.16  26 3.16
                            10 3.16  24 3.16   4 3.17   7 3.17
  30  0.532  0.864  0.500- 197 2.41 194 2.41  76 2.41 136 2.41 110 2.41 191 2.41  12 3.16   6 3.16
                            34 3.16  22 3.16   5 3.17  23 3.17
  31  0.732  0.264  0.500-  81 2.41  77 2.41 101 2.41 123 2.41  95 2.41  87 2.41  21 3.16  73 3.16
                            22 3.16  23 3.17  45 3.17  40 3.17
  32  0.465  0.730  0.670- 193 2.38 134 2.40 196 2.41 199 2.41 212 2.41 209 2.41  28 3.14   9 3.15
                            13 3.16   8 3.17  37 3.18   2 3.18
  33  0.466  0.732  0.330- 201 2.41 211 2.41 192 2.41 195 2.41 198 2.41 208 2.41  29 3.16  38 3.16
                            14 3.16   7 3.16  11 3.17  10 3.17
  34  0.532  0.664  0.500- 191 2.41 186 2.41 116 2.41 194 2.41 188 2.41 119 2.41  39 3.16  46 3.16
                            30 3.16  15 3.16  12 3.16   6 3.16
  35  0.666  0.331  0.330- 127 2.41 184 2.41  84 2.41  78 2.41 200 2.41 130 2.41  44 3.16  24 3.16
                            41 3.16  68 3.16  47 3.17  26 3.17
  36  0.664  0.327  0.669-  85 2.40 182 2.40  79 2.41 126 2.41 185 2.42 129 2.45  43 3.10  27 3.15
                            25 3.15  48 3.17  58 3.18  42 3.20
  37  0.467  0.531  0.674- 193 2.39 181 2.39 196 2.43 206 2.43 190 2.43 225 2.57  42 3.13   2 3.16
                            32 3.18  18 3.18  13 3.18  43 3.30
  38  0.466  0.532  0.330- 189 2.41 180 2.41 195 2.41 205 2.41 192 2.41 135 2.41  19 3.16  41 3.16
                            11 3.16  33 3.16  14 3.16  44 3.17
  39  0.532  0.464  0.500- 128 2.41 186 2.41 133 2.41 188 2.41 183 2.41 202 2.41  34 3.16  15 3.16
                            20 3.16  45 3.16  40 3.16  46 3.17
[...]
   0.214E+01 -.307E+01 0.724E+02   -.214E+01 0.307E+01 -.724E+02   -.318E-02 -.173E-03 -.634E-02   -.229E-03 0.695E-03 0.239E-01
   -.536E+02 -.176E+02 -.351E+04   0.536E+02 0.176E+02 0.351E+04   0.176E-02 0.402E-02 0.134E+00   -.267E-02 -.590E-02 0.172E-01
   0.106E+02 0.454E+00 -.360E+04   -.105E+02 -.413E+00 0.360E+04   -.742E-01 -.317E-01 -.231E-01   0.313E-03 -.922E-03 0.197E-01
   0.143E-01 0.383E+00 0.372E+04   -.146E-01 -.390E+00 -.372E+04   -.544E-03 0.963E-03 0.392E-01   -.157E-02 0.265E-02 0.419E-02
   0.268E+01 0.206E+01 0.728E+02   -.268E+01 -.206E+01 -.728E+02   0.146E-02 0.431E-03 0.137E-02   -.105E-02 -.263E-03 0.242E-01
   -.296E+00 0.111E+01 0.684E+02   0.291E+00 -.111E+01 -.684E+02   0.322E-02 0.214E-02 0.861E-03   0.696E-03 -.887E-03 0.239E-01
   0.429E-01 0.196E-01 0.372E+04   -.472E-01 -.145E-01 -.372E+04   -.325E-03 -.106E-02 0.364E-01   0.399E-03 -.244E-02 0.344E-02
   -.318E+02 -.281E+02 -.358E+04   0.319E+02 0.281E+02 0.358E+04   -.465E-01 -.452E-01 -.244E-03   0.188E-02 -.433E-02 0.204E-01
   0.945E+01 -.263E+02 -.360E+04   -.942E+01 0.264E+02 0.360E+04   -.297E-01 -.219E-01 -.374E-01   -.110E-02 -.862E-02 0.207E-01
   -.551E+00 0.214E+00 0.372E+04   0.558E+00 -.211E+00 -.372E+04   0.824E-03 -.221E-03 0.349E-01   -.182E-02 -.127E-02 0.364E-02
   -.559E+00 -.940E-01 0.372E+04   0.562E+00 0.924E-01 -.372E+04   0.306E-02 -.945E-04 0.376E-01   -.243E-02 -.173E-03 0.388E-02
   0.198E+01 -.592E-01 0.685E+02   -.199E+01 0.527E-01 -.685E+02   0.582E-02 0.997E-02 -.835E-02   -.440E-03 -.651E-04 0.240E-01
   0.347E+02 -.388E+02 -.358E+04   -.348E+02 0.388E+02 0.358E+04   0.585E-01 -.610E-02 -.258E-01   0.561E-02 0.695E-02 0.185E-01
   0.500E+00 0.136E+00 0.372E+04   -.497E+00 -.134E+00 -.372E+04   -.217E-02 -.315E-02 0.406E-01   -.342E-03 -.195E-02 0.383E-02
   0.116E+01 -.343E+01 0.682E+02   -.116E+01 0.342E+01 -.682E+02   -.703E-03 0.429E-02 -.383E-02   0.253E-03 0.221E-03 0.226E-01
   -.722E+00 0.387E+00 0.372E+04   0.717E+00 -.388E+00 -.372E+04   0.192E-02 0.259E-02 0.395E-01   0.945E-03 -.324E-02 0.307E-02
   -.152E+02 -.562E+01 -.361E+04   0.152E+02 0.561E+01 0.361E+04   -.365E-01 0.666E-02 -.189E-01   -.264E-04 -.182E-02 0.202E-01
   0.411E+02 -.815E+01 -.357E+04   -.410E+02 0.798E+01 0.357E+04   -.281E-01 0.176E+00 -.120E+00   0.265E-02 -.158E-03 0.194E-01
   0.960E+00 -.546E+00 0.372E+04   -.963E+00 0.551E+00 -.372E+04   0.453E-02 0.141E-02 0.361E-01   0.568E-03 0.134E-02 0.389E-02
   0.529E+00 -.458E+01 0.732E+02   -.530E+00 0.459E+01 -.732E+02   -.820E-03 -.875E-02 -.641E-02   0.418E-03 0.467E-03 0.232E-01
   -.266E+01 0.948E+00 0.676E+02   0.267E+01 -.948E+00 -.677E+02   -.116E-02 0.301E-02 0.113E-02   -.336E-03 -.864E-03 0.236E-01
   -.154E+01 0.177E+01 0.724E+02   0.155E+01 -.178E+01 -.724E+02   -.825E-02 0.646E-02 0.324E-02   0.531E-03 -.798E-03 0.240E-01
   0.711E+00 0.326E+01 0.778E+02   -.715E+00 -.325E+01 -.778E+02   0.142E-02 -.174E-02 -.257E-02   0.311E-03 -.600E-03 0.244E-01
   0.146E+00 0.648E+00 0.372E+04   -.144E+00 -.648E+00 -.372E+04   -.326E-02 -.154E-02 0.380E-01   0.220E-02 0.645E-03 0.339E-02
   0.326E+02 0.238E+02 -.356E+04   -.326E+02 -.237E+02 0.356E+04   0.292E-01 -.641E-01 -.846E-01   -.894E-02 -.468E-02 0.173E-01
   0.324E-01 0.217E+00 0.372E+04   -.306E-01 -.215E+00 -.372E+04   -.125E-02 -.456E-02 0.402E-01   0.704E-03 -.192E-03 0.369E-02
   -.830E+01 0.120E+02 -.359E+04   0.830E+01 -.120E+02 0.359E+04   0.672E-02 -.926E-02 -.509E-01   0.453E-02 0.756E-03 0.183E-01
   0.271E+01 -.196E+02 -.359E+04   -.266E+01 0.196E+02 0.359E+04   -.383E-01 -.653E-01 -.316E-01   -.560E-02 0.207E-02 0.201E-01
   0.460E+00 0.213E+00 0.372E+04   -.457E+00 -.207E+00 -.372E+04   -.204E-02 0.984E-03 0.335E-01   0.794E-03 -.112E-02 0.388E-02
   0.143E+01 0.122E+01 0.712E+02   -.143E+01 -.122E+01 -.712E+02   -.214E-03 -.161E-02 0.509E-02   -.183E-03 -.495E-03 0.241E-01
   -.403E+01 0.224E+01 0.740E+02   0.404E+01 -.223E+01 -.740E+02   -.543E-02 0.463E-02 0.524E-03   0.498E-03 -.494E-03 0.234E-01
   0.350E+00 -.588E+02 -.353E+04   -.271E+00 0.588E+02 0.353E+04   -.620E-01 -.570E-01 0.215E-01   -.862E-02 0.318E-02 0.179E-01
   0.612E-01 -.704E+00 0.372E+04   -.584E-01 0.709E+00 -.372E+04   -.743E-02 0.626E-03 0.339E-01   -.849E-03 -.447E-02 0.364E-02
   0.181E+00 -.278E+00 0.676E+02   -.190E+00 0.277E+00 -.676E+02   0.979E-02 0.668E-02 -.925E-02   0.136E-03 -.779E-03 0.232E-01
   -.519E+00 0.263E+00 0.372E+04   0.521E+00 -.263E+00 -.372E+04   -.598E-03 -.357E-02 0.402E-01   0.133E-02 0.263E-02 0.365E-02
   -.183E+02 0.490E+02 -.354E+04   0.182E+02 -.493E+02 0.354E+04   0.196E+00 0.285E+00 0.169E+00   -.580E-02 0.138E-01 0.141E-01
   0.606E+02 0.803E+01 -.358E+04   -.607E+02 -.723E+01 0.358E+04   -.326E-02 -.799E+00 0.474E+00   0.524E-02 0.605E-03 0.201E-01
   -.684E-01 -.258E+00 0.372E+04   0.648E-01 0.259E+00 -.372E+04   0.221E-02 -.341E-02 0.348E-01   0.147E-02 -.258E-03 0.381E-02
   -.223E+01 -.191E+01 0.701E+02   0.224E+01 0.192E+01 -.701E+02   -.967E-02 -.936E-02 -.422E-02   0.984E-03 0.907E-04 0.216E-01
   -.458E+01 0.377E+00 0.715E+02   0.458E+01 -.375E+00 -.715E+02   0.492E-02 -.494E-02 0.246E-02   0.681E-03 0.549E-03 0.217E-01
   -.493E+00 0.830E+00 0.372E+04   0.495E+00 -.829E+00 -.372E+04   -.945E-03 0.573E-03 0.355E-01   -.309E-03 0.363E-03 0.404E-02
   -.875E+01 0.446E+02 -.358E+04   0.930E+01 -.453E+02 0.358E+04   -.570E+00 0.725E+00 0.978E+00   -.741E-02 0.456E-02 0.247E-01
   0.291E+02 -.366E+02 -.338E+04   -.287E+02 0.360E+02 0.338E+04   -.447E+00 0.611E+00 0.563E+00   0.160E-01 -.112E-02 0.142E-01
   -.475E+00 0.416E+00 0.372E+04   0.468E+00 -.416E+00 -.372E+04   0.601E-02 -.299E-02 0.333E-01   0.294E-02 0.156E-02 0.403E-02
   -.302E+01 -.168E+00 0.772E+02   0.302E+01 0.172E+00 -.772E+02   -.146E-03 -.414E-02 -.482E-02   0.558E-03 0.867E-03 0.230E-01
   -.136E+01 0.104E+01 0.656E+02   0.135E+01 -.104E+01 -.657E+02   0.877E-02 -.359E-02 -.473E-02   0.519E-04 0.540E-03 0.225E-01
   -.198E-01 -.199E+00 0.372E+04   0.165E-01 0.193E+00 -.372E+04   0.139E-02 0.353E-02 0.377E-01   0.248E-02 -.209E-03 0.297E-02
   -.691E+01 0.158E+02 -.361E+04   0.689E+01 -.158E+02 0.361E+04   0.184E-01 -.297E-01 0.228E-01   -.185E-02 -.229E-02 0.193E-01
   -.133E+01 -.951E+00 0.683E+02   0.134E+01 0.947E+00 -.683E+02   -.507E-02 0.232E-02 -.635E-02   -.581E-03 0.486E-03 0.239E-01
   0.315E+02 0.265E+01 -.357E+04   -.314E+02 -.264E+01 0.357E+04   -.137E+00 -.774E-02 -.304E-01   -.152E-02 -.141E-02 0.166E-01
   -.120E+02 0.124E+02 -.361E+04   0.120E+02 -.124E+02 0.361E+04   -.516E-01 -.716E-05 -.255E-01   0.511E-02 0.365E-02 0.198E-01
   0.144E+00 -.316E+00 0.372E+04   -.145E+00 0.312E+00 -.372E+04   -.155E-02 0.204E-02 0.389E-01   -.268E-02 0.164E-02 0.324E-02
   0.250E+01 0.124E+01 0.666E+02   -.250E+01 -.124E+01 -.666E+02   0.978E-03 0.631E-02 0.440E-03   -.213E-03 0.299E-03 0.238E-01
   0.924E+00 0.603E+00 0.648E+02   -.930E+00 -.604E+00 -.648E+02   0.105E-02 0.318E-02 -.210E-02   0.110E-03 -.832E-04 0.234E-01
   -.458E+02 0.303E+02 -.356E+04   0.459E+02 -.303E+02 0.356E+04   -.147E-01 0.325E-01 0.214E-01   0.289E-02 0.788E-02 0.177E-01
   0.582E+01 -.187E+01 -.361E+04   -.580E+01 0.187E+01 0.361E+04   -.195E-01 0.723E-02 -.431E-01   0.420E-02 -.609E-02 0.204E-01
   0.181E+00 0.971E-01 0.372E+04   -.179E+00 -.103E+00 -.372E+04   0.307E-03 0.214E-02 0.416E-01   -.203E-02 0.582E-03 0.333E-02
   -.150E+02 0.393E+02 -.359E+04   0.150E+02 -.394E+02 0.359E+04   -.722E-02 0.698E-01 -.482E-01   0.506E-02 -.128E-02 0.182E-01
   0.825E+00 -.142E+00 0.654E+02   -.827E+00 0.139E+00 -.654E+02   0.182E-02 0.538E-02 -.192E-02   0.402E-03 0.362E-03 0.235E-01
   0.157E+02 -.115E+02 -.361E+04   -.157E+02 0.115E+02 0.361E+04   0.122E-01 0.360E-01 0.278E-01   0.989E-03 0.448E-03 0.198E-01
[...]
   -.125E+03 -.628E+02 -.123E+04   0.126E+03 0.637E+02 0.123E+04   -.162E+01 -.789E+00 0.451E+00   -.860E-02 -.387E-02 0.109E-01
   0.144E+03 0.678E+02 -.113E+04   -.145E+03 -.681E+02 0.113E+04   0.580E+00 0.300E+00 -.921E+00   0.116E-01 0.539E-02 -.212E-02
   -.154E+03 -.754E+02 -.115E+04   0.155E+03 0.758E+02 0.115E+04   -.751E+00 -.359E+00 -.595E+00   -.117E-01 -.574E-02 0.342E-02
   -.112E+02 -.809E+01 -.106E+04   0.113E+02 0.826E+01 0.106E+04   -.347E-01 -.150E+00 -.576E+00   0.270E-03 -.378E-03 -.284E-02
   0.158E+03 0.715E+02 -.122E+04   -.159E+03 -.723E+02 0.122E+04   0.122E+01 0.830E+00 -.308E-01   0.998E-02 0.469E-02 0.654E-02
   -.246E+02 -.452E+01 -.868E+03   0.246E+02 0.480E+01 0.869E+03   0.302E-01 -.275E+00 -.625E+00   -.473E-03 -.162E-02 -.101E-01
   -.717E+02 -.338E+02 -.284E+03   0.765E+02 0.360E+02 0.286E+03   -.488E+01 -.227E+01 -.206E+01   -.377E-02 -.183E-02 -.364E-03
   0.628E+02 0.312E+02 -.278E+03   -.669E+02 -.333E+02 0.281E+03   0.407E+01 0.207E+01 -.351E+01   0.307E-02 0.145E-02 -.144E-02
   0.692E+02 0.342E+02 -.310E+03   -.741E+02 -.366E+02 0.308E+03   0.483E+01 0.243E+01 0.213E+01   0.326E-02 0.155E-02 0.174E-02
   -.582E+02 -.272E+02 -.317E+03   0.626E+02 0.293E+02 0.313E+03   -.430E+01 -.201E+01 0.349E+01   -.258E-02 -.114E-02 0.246E-02
   -.336E+02 0.526E+02 -.204E+03   0.362E+02 -.571E+02 0.206E+03   -.259E+01 0.454E+01 -.163E+01   -.123E-02 0.205E-02 -.132E-02
   -.372E+02 -.495E+02 -.205E+03   0.404E+02 0.538E+02 0.207E+03   -.314E+01 -.433E+01 -.156E+01   -.142E-02 -.209E-02 -.118E-02
   0.490E+02 -.517E+01 -.208E+03   -.537E+02 0.545E+01 0.211E+03   0.477E+01 -.270E+00 -.286E+01   0.210E-02 -.243E-03 -.174E-02
   0.609E+00 0.103E+02 -.335E+03   -.274E+00 -.107E+02 0.336E+03   -.338E+00 0.374E+00 -.132E+01   -.714E-03 -.273E-03 0.149E-02
   -.229E+01 -.735E+01 0.177E+01   -.805E-12 0.220E-11 0.251E-10   0.236E+01 0.761E+01 -.694E+00   0.292E-03 0.434E-02 -.114E+01

 POSITION                                       TOTAL-FORCE (eV/Angst)
      1.55189     -0.93518     18.21120        -0.002632     -0.000439     -0.004754
     11.05323      0.88544     24.44757        -0.009480      0.000475     -0.000831
      9.44724      9.09668     24.38259         0.008754      0.007474      0.008853
      9.47115      9.12471     12.01703        -0.002726     -0.004187      0.003490
      9.46185      7.28740     18.20947        -0.001404     -0.000249      0.004538
     12.62760      1.80607     18.21256        -0.000527     -0.005103      0.004175
     12.63683      3.64018     12.01866        -0.004560      0.000498     -0.000662
     12.62344      3.61787     24.40676         0.009507     -0.006143     -0.005296
      7.86871      6.36103     24.40911         0.003817     -0.001141     -0.013530
      7.88928      6.38389     12.01875         0.005813      0.001026     -0.000845
     11.05407      0.90135     12.02016         0.003381     -0.002948     -0.003248
      7.88125      4.54619     18.21048        -0.002622      0.002278     -0.003243
      6.29316      3.62184     24.44073         0.008666      0.005375      0.003105
      6.30783      3.64360     12.01856         0.000687     -0.003970      0.002770
      6.29920      1.80647     18.21019        -0.000210     -0.001075      0.004166
      7.88939    -10.05980     12.01767        -0.001939     -0.003253      0.002123
      7.87525    -10.08914     24.40678        -0.001029     -0.000380     -0.009456
      4.71967      0.86581     24.42628        -0.001530      0.007585      0.001793
      4.72640      0.90209     12.01823         0.001566      0.006802     -0.001645
      4.71588     -0.93387     18.21192        -0.001194     -0.004146      0.004897
      9.46271     -9.15618     18.21049         0.003799      0.001097      0.003587
      6.29774     -9.15561     18.20943        -0.004369      0.001398      0.001809
      4.71656     -6.41549     18.20814        -0.002736     -0.002599     -0.005216
      4.72348     -4.57892     12.01969         0.000310     -0.002133     -0.000305
      4.69389     -4.63056     24.35333         0.006099      0.012131     -0.003686
      6.30659     -7.32121     12.01958         0.000919     -0.004043      0.001028
      6.28913     -7.35309     24.38405         0.004799      0.006356      0.006074
     11.03484      6.35459     24.38889         0.008497      0.001659     -0.005612
     11.05385      6.38251     12.02013         0.001357      0.005113     -0.001509
     11.04463      4.54509     18.21053        -0.002290     -0.003462      0.007234
      7.88157     -6.41563     18.20876        -0.002878      0.005217      0.001139
      9.45706      3.63780     24.41303         0.007783     -0.001160     -0.006016
      9.47232      3.64284     12.02059        -0.005798      0.000399     -0.003426
      9.46291      1.80522     18.21191         0.001130      0.003736      0.000920
      7.88807     -4.57954     12.02210         0.002633     -0.002141      0.001051
      7.84737     -4.61834     24.36946        -0.000164      0.000407      0.002455
      7.89544      0.87593     24.55011        -0.008303      0.001152     -0.011862
      7.88998      0.90262     12.02040        -0.000144     -0.003410     -0.006919
      7.88013     -0.93291     18.21148        -0.003558     -0.002817      0.002559
      9.46413     -3.67298     18.21002         0.004314     -0.003732      0.002728
      9.47010     -1.83862     12.02134         0.000331      0.001405     -0.003313
      9.43855     -1.84610     24.51192        -0.028009      0.004778      0.000243
      6.25384     -1.96627     24.25437        -0.017551     -0.008668      0.003451
      6.30675     -1.83837     12.02172         0.001775     -0.002089     -0.004562
      6.29892     -3.67445     18.21044         0.001908     -0.000188     -0.004454
     11.04562     -0.93346     18.21408        -0.002606     -0.004354      0.000796
      9.47183     -7.31979     12.02154         0.000298     -0.003596     -0.000972
      9.45353     -7.34895     24.41034        -0.003982      0.007347      0.003767
      7.88001    -11.89672     18.21223        -0.001727     -0.002030     -0.008044
      3.12246     -1.86433     24.36294         0.003543      0.002034     -0.003720
      6.28375      9.10085     24.41091         0.004808      0.003856      0.001571
      6.30717      9.12380     12.01713        -0.004934     -0.001434      0.000037
      6.29843      7.28660     18.21156        -0.000359      0.004810      0.006188
     12.62850     -3.67585     18.21397        -0.005176      0.001537     -0.000633
     12.63091     -1.86555     24.42143         0.001031      0.003335      0.000460
      4.70494      6.36024     24.41994         0.004854     -0.002358     -0.013764
      4.72542      6.38402     12.01864         0.000670     -0.004048      0.001477
     11.03076     -4.60112     24.43060         0.002607     -0.000719     -0.002303
      4.71767      4.54621     18.21103        -0.000055      0.002279      0.002425
      3.12779      3.61263     24.42303        -0.002872      0.009461     -0.002147
[...]
      8.48371     -0.22015     28.26499         0.006136      0.001091     -0.007106
      9.66460      0.32905     28.78890         0.019326      0.009530     -0.009962
      7.69853     -0.64061     30.52978         0.011734      0.024875     -0.001647
      9.84274      0.38981     30.17124         0.000452      0.001819      0.011976
      8.87461     -0.09424     31.06396         0.013434      0.014859      0.009550
      7.50525     -0.71007     29.15445        -0.024142      0.004073      0.001764
      9.10769     -0.07092     32.54989        -0.008187      0.002081     -0.012571
     10.76797      0.81968     30.56582         0.014493     -0.000328     -0.003512
      6.92726     -1.03183     31.19934        -0.004471      0.018506      0.000413
      6.59559     -1.16706     28.75170         0.004846      0.023826      0.001950
     10.45631      0.69852     28.13842         0.000833     -0.004293      0.003970
      9.62930     -0.98801     32.87332         0.009178     -0.000277      0.004634
      9.73187      0.78402     32.84646         0.010009      0.007510      0.005358
      8.15929     -0.02123     33.10429         0.002565      0.005372     -0.001574
      7.69398     -1.96582     25.22205        -0.003228      0.002441      0.006781
    total drift:                                0.064744      0.266881     -0.058639

  FREE ENERGIE OF THE ION-ELECTRON SYSTEM (eV)
  free  energy   TOTEN  =     -1295.40787249 eV

  energy  without entropy=    -1295.40787249  energy(sigma->0) =    -1295.40787249

 stress matrix after NEB project (eV)
      3.52676      1.77565      0.96319
      1.77565      4.69944      1.28748
      0.96319      1.28748     -0.51661
  FORCES: max atom, RMS     0.028415    0.008603
  FORCE total and by dimension    0.133276    0.028009
  Stress total and by dimension    6.801921    4.699435

 reached required accuracy - stopping structural energy minimisation