 vasp.6.3.2 27Jun22 (build Jan 03 2024 23:05:41) complex

 executed on           IFC15_impi date 2024.08.05  07:33:57

 INCAR:
   ENCUT = 600.00
   EDIFF = 1.00e-06
   IBRION = -1
   NSW = 0
   ALGO = Normal
   ISMEAR = -5
   LORBIT = 11
   LCHARG = .TRUE.
   LWAVE = .FALSE.
   LREAL = Auto
   NELM = 2000
   NCORE = 16
   KPAR = 8
   ISPIN = 2
   GGA = MK
   PARAM1 = 0.1234
   PARAM2 = 1.0
   AGGAC = 0.0
   LUSE_VDW = .TRUE.
   LASPH = .TRUE.
   LDIPOL = .TRUE.
   DIPOL = 0.5 0.5 0.5
   IDIPOL = 3

 POTCAR:    PAW_PBE Mo_sv 02Feb2006
 POTCAR:    PAW_PBE S 06Sep2000
|           W    W    AA    RRRRR   N    N  II  N    N   GGGG   !!!           |
|           W    W   A  A   R    R  NN   N  II  NN   N  G    G  !!!           |
|           W    W  A    A  R    R  N N  N  II  N N  N  G       !!!           |
|           W WW W  AAAAAA  RRRRR   N  N N  II  N  N N  G  GGG   !            |
|           WW  WW  A    A  R   R   N   NN  II  N   NN  G    G                |
|           W    W  A    A  R    R  N    N  II  N    N   GGGG   !!!           |
|     You use a magnetic or noncollinear calculation, but did not specify     |
|     the initial magnetic moment with the MAGMOM tag. Note that a            |
|     default of 1 will be used for all atoms. This ferromagnetic setup       |
|     may break the symmetry of the crystal, in particular it may rule        |
|     out finding an antiferromagnetic solution. Thence, we recommend         |
|     setting the initial magnetic moment manually or verifying carefully     |
|     that this magnetic setup is desired.                                    |

   TITEL  = PAW_PBE Mo_sv 02Feb2006
   POMASS =   95.940; ZVAL   =   14.000    mass and valenz
   ENMAX  =  242.676; ENMIN  =  182.007 eV

   TITEL  = PAW_PBE S 06Sep2000
   POMASS =   32.066; ZVAL   =    6.000    mass and valenz
   ENMAX  =  258.689; ENMIN  =  194.016 eV

 Optimization of the real space projectors (new method)

 maximal supplied QI-value         = 15.12
 optimisation between [QCUT,QGAM] = [ 12.55, 25.10] = [ 44.09,176.36] Ry
 Optimized for a Real-space Cutoff    1.47 Angstroem

   l    n(q)    QCUT    max X(q) W(low)/X(q) W(high)/X(q)  e(spline)
   0     11    12.548     3.559    0.18E-04    0.60E-05    0.19E-06
   0     11    12.548    20.730    0.37E-04    0.13E-04    0.98E-07
   1     11    12.548     3.279    0.80E-06    0.70E-06    0.27E-07
   1     11    12.548     4.693    0.72E-04    0.11E-03    0.38E-06
   2     10    12.548    67.616    0.34E-03    0.45E-03    0.54E-06
   2     10    12.548    62.420    0.34E-03    0.45E-03    0.54E-06
 Optimization of the real space projectors (new method)

 maximal supplied QI-value         = 19.84
 optimisation between [QCUT,QGAM] = [ 12.50, 25.00] = [ 43.76,175.03] Ry
 Optimized for a Real-space Cutoff    1.06 Angstroem

   l    n(q)    QCUT    max X(q) W(low)/X(q) W(high)/X(q)  e(spline)
   0      8    12.501   187.594    0.26E-03    0.17E-03    0.97E-07
   0      8    12.501   164.243    0.26E-03    0.17E-03    0.96E-07
   1      7    12.501    67.533    0.50E-03    0.61E-03    0.91E-07
   1      7    12.501    50.729    0.48E-03    0.60E-03    0.90E-07
|               ----> ADVICE to this user running VASP <----                  |
|     You enforced a specific xc type in the INCAR file but a different       |
|     type was found in the POTCAR file.                                      |
|     I HOPE YOU KNOW WHAT YOU ARE DOING!                                     |

  PAW_PBE Mo_sv 02Feb2006               :
  PAW_PBE S 06Sep2000                   :

 POSCAR: Mo  S
  positions in direct lattice
  velocities in cartesian coordinates
 exchange correlation table for  LEXCH =       43
   RHO(1)=    0.500       N(1)  =     2000
   RHO(2)=  100.500       N(2)  =     4000

 VTST: version 4.1, (05/19/21)

 CHAIN: initializing optimizer

 OPT: Using VASP Dynamics algorithm
 CHAIN: Read ICHAIN            0

 POSCAR: Mo  S
  positions in direct lattice
  velocities in cartesian coordinates

 ion  position               nearest neighbor table
   1  0.133  0.067  0.500- 159 2.41 144 2.41 138 2.41 162 2.41 147 2.41 141 2.41  62 3.16  20 3.16
                            49 3.16  71 3.16  72 3.16  67 3.16
   2  0.667  0.733  0.670- 194 2.41 106 2.41 117 2.41 197 2.41 108 2.41 114 2.41  32 3.16   8 3.16
                            37 3.16  64 3.16  55 3.16  42 3.16
   3  0.267  0.933  0.670- 216 2.41 140 2.41 155 2.41 143 2.41 219 2.41 149 2.41  74 3.16   9 3.16
                            51 3.16  28 3.16  50 3.16  25 3.16
   4  0.267  0.933  0.330- 218 2.41 142 2.41 148 2.41 215 2.41 139 2.41 146 2.41  75 3.16  10 3.16
                            52 3.16  70 3.16  29 3.16  24 3.16
   5  0.333  0.867  0.500- 214 2.41 198 2.41 208 2.41 217 2.41 136 2.41 211 2.41  30 3.16  23 3.16
                            12 3.16  71 3.16  72 3.16  53 3.16
   6  0.733  0.867  0.500- 110 2.41  89 2.41 119 2.41  76 2.41 116 2.41 100 2.41  67 3.16  49 3.16
                            46 3.16  22 3.16  30 3.16  34 3.16
   7  0.667  0.933  0.330- 105 2.41 202 2.41  94 2.41 107 2.41 199 2.41  97 2.41  29 3.16  11 3.16
                            33 3.16  26 3.16  63 3.16  16 3.16
   8  0.667  0.933  0.670- 106 2.41 200 2.41  96 2.41 134 2.41 108 2.41  93 2.41  28 3.16   2 3.16
                            32 3.16  27 3.16  64 3.16  17 3.16
   9  0.267  0.733  0.670- 157 2.41 216 2.41 210 2.41 137 2.41 219 2.41 213 2.41  51 3.16   3 3.16
                            56 3.16  28 3.16  13 3.16  32 3.16
  10  0.267  0.733  0.330- 145 2.41 218 2.41 212 2.41 215 2.41 158 2.41 209 2.41  52 3.16   4 3.16
                            57 3.16  29 3.16  14 3.16  33 3.16
  11  0.667  0.733  0.330- 196 2.41 105 2.41 115 2.41 193 2.41 107 2.41 118 2.41  33 3.16   7 3.16
                            38 3.16  63 3.16  41 3.16  69 3.16
  12  0.333  0.667  0.500- 192 2.41 179 2.41 208 2.41 205 2.41 195 2.41 211 2.41  34 3.16  15 3.16
                            30 3.16  59 3.16  53 3.16   5 3.16
  13  0.267  0.533  0.670- 181 2.41 173 2.41 210 2.41 207 2.41 176 2.41 213 2.41  56 3.16  18 3.16
                            60 3.16   9 3.16  37 3.16  32 3.16
  14  0.267  0.533  0.330- 206 2.41 175 2.41 212 2.41 180 2.41 209 2.41 172 2.41  57 3.16  19 3.16
                            61 3.16  10 3.16  38 3.16  33 3.16
  15  0.333  0.467  0.500- 179 2.41 186 2.41 150 2.41 205 2.41 189 2.41 153 2.41  39 3.16  12 3.16
                            34 3.16  20 3.16  59 3.16  62 3.16
  16  0.867  0.133  0.330-  90 2.41  94 2.41 124 2.41 132 2.41  97 2.41 102 2.41  63 3.16  66 3.16
                            26 3.16  47 3.16   7 3.16  61 3.16
  17  0.867  0.133  0.670- 104 2.41  96 2.41  88 2.41  91 2.41  93 2.41 122 2.41  64 3.16  65 3.16
                            27 3.16  48 3.16   8 3.16  60 3.16
  18  0.267  0.333  0.670- 167 2.41 181 2.41 152 2.41 170 2.41 207 2.41 178 2.41  60 3.16  13 3.16
                            65 3.16  37 3.16  43 3.16  50 3.16
  19  0.267  0.333  0.330- 169 2.41 206 2.41 154 2.41 180 2.41 166 2.41 151 2.41  61 3.16  14 3.16
                            66 3.16  38 3.16  44 3.16  70 3.16
  20  0.333  0.267  0.500- 203 2.41 144 2.41 150 2.41 183 2.41 147 2.41 153 2.41  45 3.16  71 3.16
                            39 3.16   1 3.16  62 3.16  15 3.16
  21  0.933  0.267  0.500- 123 2.41 131 2.41 165 2.41  81 2.41  80 2.41 168 2.41  31 3.16  49 3.16
                            22 3.16  62 3.16  73 3.16  59 3.16
  22  0.733  0.067  0.500- 101 2.41 131 2.41 110 2.41  95 2.41  80 2.41  76 2.41  49 3.16  31 3.16
                            21 3.16   6 3.16  23 3.16  30 3.16
  23  0.533  0.067  0.500- 220 2.41 101 2.41 198 2.41 223 2.41  95 2.41 136 2.41  71 3.16  45 3.16
                             5 3.16  31 3.16  30 3.16  22 3.16
  24  0.467  0.133  0.330- 204 2.41 148 2.41 184 2.41 221 2.41 146 2.41 201 2.41  26 3.16  35 3.16
                            29 3.16  44 3.16  70 3.16   4 3.16
  25  0.467  0.133  0.670- 222 2.41 155 2.41 182 2.41 224 2.41 149 2.41 185 2.41  27 3.16  36 3.16
                            28 3.16  43 3.16  50 3.16   3 3.16
  26  0.667  0.133  0.330-  94 2.41 204 2.41  84 2.41  97 2.41  78 2.41 221 2.41  24 3.16  29 3.16
                             7 3.16  16 3.16  35 3.16  47 3.16
  27  0.667  0.133  0.670-  96 2.41 222 2.41  79 2.41  93 2.41 224 2.41  85 2.41  25 3.16  28 3.16
                             8 3.16  17 3.16  36 3.16  48 3.16
  28  0.467  0.933  0.670- 200 2.41 216 2.41 222 2.41 134 2.41 219 2.41 224 2.41   8 3.16  32 3.16
                            27 3.16   9 3.16   3 3.16  25 3.16
  29  0.467  0.933  0.330- 202 2.41 218 2.41 204 2.41 199 2.41 215 2.41 221 2.41   7 3.16  33 3.16
                            26 3.16  10 3.16   4 3.16  24 3.16
  30  0.533  0.867  0.500- 198 2.41 110 2.41 192 2.41 136 2.41 195 2.41  76 2.41   5 3.16  12 3.16
                             6 3.16  23 3.16  34 3.16  22 3.16
  31  0.733  0.267  0.500- 123 2.41 101 2.41  77 2.41  81 2.41  95 2.41  87 2.41  21 3.16  22 3.16
                            73 3.16  23 3.16  45 3.16  40 3.16
  32  0.467  0.733  0.670- 194 2.41 210 2.41 200 2.41 197 2.41 213 2.41 134 2.41   2 3.16  28 3.16
                             8 3.16   9 3.16  37 3.16  13 3.16
  33  0.467  0.733  0.330- 196 2.41 212 2.41 202 2.41 193 2.41 209 2.41 199 2.41  11 3.16  29 3.16
                             7 3.16  10 3.16  38 3.16  14 3.16
  34  0.533  0.667  0.500- 192 2.41 119 2.41 186 2.41 195 2.41 116 2.41 189 2.41  12 3.16  39 3.16
                            15 3.16  30 3.16  46 3.16   6 3.16
  35  0.667  0.333  0.330- 184 2.41 127 2.41  84 2.41 130 2.41 201 2.41  78 2.41  44 3.16  41 3.16
                            24 3.16  68 3.16  47 3.16  26 3.16
  36  0.667  0.333  0.670- 182 2.41 129 2.41  79 2.41 185 2.41 126 2.41  85 2.41  43 3.16  42 3.16
                            25 3.16  58 3.16  48 3.16  27 3.16
  37  0.467  0.533  0.670- 188 2.41 181 2.41 194 2.41 191 2.41 207 2.41 197 2.41  42 3.16  43 3.16
                             2 3.16  18 3.16  13 3.16  32 3.16
  38  0.467  0.533  0.330- 190 2.41 206 2.41 196 2.41 135 2.41 180 2.41 193 2.41  41 3.16  44 3.16
                            11 3.16  19 3.16  14 3.16  33 3.16
  39  0.533  0.467  0.500- 186 2.41 133 2.41 203 2.41 189 2.41 183 2.41 128 2.41  15 3.16  34 3.16
                            20 3.16  46 3.16  45 3.16  40 3.16
  40  0.733  0.467  0.500- 133 2.41 109 2.41  77 2.41 128 2.41  87 2.41 113 2.41  73 3.16  46 3.16
                            54 3.16  39 3.16  31 3.16  45 3.16
  41  0.667  0.533  0.330- 127 2.41 190 2.41 115 2.41 130 2.41 135 2.41 118 2.41  38 3.16  35 3.16
                            44 3.16  11 3.16  68 3.16  69 3.16
  42  0.667  0.533  0.670- 129 2.41 188 2.41 117 2.41 126 2.41 191 2.41 114 2.41  37 3.16  36 3.16
                            43 3.16   2 3.16  58 3.16  55 3.16
  43  0.467  0.333  0.670- 182 2.41 152 2.41 188 2.41 185 2.41 178 2.41 191 2.41  36 3.16  37 3.16
                            42 3.16  25 3.16  18 3.16  50 3.16
  44  0.467  0.333  0.330- 184 2.41 154 2.41 190 2.41 201 2.41 135 2.41 151 2.41  35 3.16  38 3.16
                            41 3.16  24 3.16  19 3.16  70 3.16
[...]
  315          fft3d_mpi                             0.035458                          3   4
  316            fftbrc_mpi                            0.033318                        3   5
  317              fftbas_plan_mpi                       0.033308                      3   6
  318                dfftw_execute                         0.011207                    9   7
  319                map_backward                          0.007469                    2   7
  320                  map_gather                            0.000833                  1   8
  321                  m_alltoallv_z                         0.004184                  1   8
  322                  map_scatter                           0.002423                  1   8
  323                map_forward                           0.012856                    4   7
  324                  map_gather                            0.004455                  2   8
  325                  m_alltoallv_z                         0.006482                  2   8
  326                  map_scatter                           0.001875                  2   8
  327          m_sumb_d                              0.000114                          2   4
  328          pothar                                0.003918                          1   4
  329            m_sumb_d                              0.001171                        1   5
  330        brmix                                 0.100051                            1   3
  331          m_sumb_d                              0.004656                          6   4
  332          brpre                                 0.000348                          2   4
  333          setg0                                 0.010243                          1   4
  334          broyd                                 0.060995                          1   4
  335            m_sumb_d                              0.006202                       41   5
  336            brget                                 0.010460                      213   5
  337            brsav                                 0.003195                       39   5
  338          m_bcast_z                             0.010378                          1   4
  339          m_bcast_d                             0.000252                          1   4
  340        m_bcast_d                             0.000743                            2   3
  341      potlok                               11.031387                              1   2
  342        fft3d_mpi                             1.672297                           86   3
  343          fftbrc_mpi                            1.608872                         86   4
  344            fftbas_plan_mpi                       1.608608                       86   5
  345              dfftw_execute                         0.316059                    258   6
  346              map_forward                           0.785069                     88   6
  347                map_gather                            0.090141                   46   7
  348                m_alltoallv_z                         0.654232                   46   7
  349                map_scatter                           0.039749                   46   7
  350              map_backward                          0.452950                     84   6
  351                map_gather                            0.034158                   42   7
  352                m_alltoallv_z                         0.312453                   42   7
  353                map_scatter                           0.105541                   42   7
  354        m_sumb_d                              0.098172                            8   3
  355        fewald                                0.001629                            2   3
  356          rsp                                   0.001519                          2   4
  357          rcp                                   0.000095                          2   4
  358        pothar                                0.003250                            1   3
  359          m_sumb_d                              0.000534                          1   4
  360        m_bcast_d                             0.004278                            2   3
  361      potlok_metagga                        0.000001                              1   2
  362      set_dd_magatom                        0.000001                              1   2
  363      set_dd_paw                            2.189638                              1   2
  364        set_rsgf_all                          0.000002                            1   3
  365        m_sumb_d                              2.189306                            8   3
  366      densta                              807.292786                              1   2
  367        m_bcast_z                             0.000826                            1   3

 Flat profile

 ggemm                                5443.443334       99995
 total_time                           2167.675783           1
 orth1                                1856.755195      224801
 eddav                                1207.627104          39
 dfftw_execute                         988.752665     1353999
 densta                                850.640745          40
 m_alltoall_d                          603.048597     1100035
 m_sumb_d                              381.727477      857967
 m_alltoallv_z                         378.873096      451475
 potlok                                334.089200          36
 lincom                                304.449595         160
 fftbas_plan_mpi                       249.929800      451333
 map_scatter                           227.547017      451475
 map_gather                            221.567349      451475
 sphpro_fast                           193.995997           2
 m_bcast_z                             173.037682      113516
 fftwav_mpi                            158.820742      298930
 crrexp_mul_work_add                   130.510654    33542325
 gemm                                  118.925245    16694550
 set_charge                            104.790190          35
 map_forward                           102.086140      601122
 rpromu_gemm                            87.806419    12026250
 vhamil                                 87.453210      149077
 racc0mu                                76.432247       74198
 crrexp_mul_wave                        68.584399    26030925
 rpromu                                 56.688578       53450
 lapack                                 52.048669       74879
 redis_pw                               37.785823      397475
 w1_copy                                31.822205      447231
 eccp                                   28.628166       50076
 fftext_mpi                             25.911330      149077
 pw_charge                              18.328039       34160
 kinhamil                               11.457820      149077
 force_and_stress                        9.292663           1
 setup_precond                           9.028096       50076
 overl                                   8.895642      248082
 apply_precond                           8.385675       99001
 m_bcast_d                               7.675652      149871
 redis_proj                              7.543517      496480
 augmentation_charge                     4.366581          35
 fft3d_mpi                               4.321442      451333
 overl1                                  3.934480      149077
 setdij_                                 3.205570          63
 map_backward                            2.877667      301544
 forhar                                  2.331421           2
 newband                                 2.021119       75035
 hamiltmu                                2.012361       74879
 phaser                                  1.816082         182
 fftbas_mpi                              1.420501      448007
 forloc                                  1.171516           1
 choleski                                1.061653           4
 racc0                                   0.940932         681
 raccmu_                                 0.932488       74879
 elmin                                   0.826299           1
 rpro1                                   0.742100         525
 stufak                                  0.727966           1
 depsum                                  0.551899          35
 broyd                                   0.549051          35
 soft_charge                             0.538545          35
 brmix                                   0.507827          35
 inisym                                  0.486019           1
 rspher_all                              0.478705          14
 w1_projall                              0.379109       49763
 setg0                                   0.364715          37
 strnlr                                  0.215062           1
 truncate_high_frequency_w1              0.197091      199153
 brget                                   0.169589        3528
 strkin                                  0.125299           1
 rpro_isp                                0.121972          26
 pothar                                  0.101215          37
 fornlr                                  0.077948           1
 brsav                                   0.071238         776
 posmap                                  0.062564           2
 rsp                                     0.061240          73
 orthch                                  0.029922           1
 set_dd_paw                              0.019033          37
 brgrid                                  0.017793           1
 strehar                                 0.017151           1
 strelo                                  0.015948           1
 fft_gq                                  0.014505          35
 brpre                                   0.014440          70
 chggra                                  0.012652           1
 fftbrc_mpi                              0.009788        3326
 fewald                                  0.008168          73
 rcp                                     0.004415          73
 fordep                                  0.000394           1
 set_dd_magatom                          0.000377          37
 crpa_reader                             0.000307           1
 set_rsgf_all                            0.000118          37
 proall                                  0.000093           1
 vectorpot                               0.000075          36
 potlok_metagga                          0.000070          36
 rotate_active_occupied_orbital          0.000015           1
 redis_pw_over_bands                     0.000000           1
  summed up times    16871.9962880611

 Accumulative profile

 total_time                          16871.996288           1
 elmin                               13353.237944           1
 eddav                               12520.528806          39
 ggemm                                5443.443334       99995
 fft3d_mpi                            2177.385465      451333
 fftbas_plan_mpi                      2171.633734      451333
 fftbas_mpi                           2111.424379      448007
 orth1                                1856.755195      224801
 fftwav_mpi                           1641.955574      298930
 hamiltmu                             1111.860449       74879
 dfftw_execute                         988.752665     1353999
 densta                                850.672131          40
 map_forward                           694.549583      601122
 kinhamil                              667.547406      149077
 fftext_mpi                            656.089586      149077
 m_alltoall_d                          603.048597     1100035
 potlok                                398.743565          36
 redis_pw                              391.401810      397475
 m_sumb_d                              381.727477      857967
 m_alltoallv_z                         378.873096      451475
 newband                               376.671603       75035
 raccmu_                               354.847472       74879
 racc0mu                               348.258612       74198
 set_charge                            325.746211          35
 lincom                                304.449595         160
 redis_proj                            256.976126      496480
 map_backward                          238.401686      301544
 rpromu                                229.902729       53450
 map_scatter                           227.547017      451475
 map_gather                            221.567349      451475
 soft_charge                           202.978438          35
 w1_projall                            202.562185       49763
 sphpro_fast                           197.022728           2
 m_bcast_z                             173.037682      113516
 force_and_stress                      139.786570           1
 crrexp_mul_work_add                   130.510654    33542325
 gemm                                  118.925245    16694550
 rpro_isp                              112.891555          26
 rpromu_gemm                            87.806419    12026250
 vhamil                                 87.453210      149077
 set_dd_paw                             83.243840          37
 strnlr                                 83.154691           1
 crrexp_mul_wave                        68.584399    26030925
 fftbrc_mpi                             61.639644        3326
 lapack                                 52.048669       74879
 eccp                                   32.560827       50076
 w1_copy                                31.822205      447231
 fornlr                                 27.835879           1
 pw_charge                              18.328039       34160
 orthch                                 13.119459           1
 setup_precond                          10.609612       50076
 overl                                   8.895642      248082
 proall                                  8.818346           1
 apply_precond                           8.385675       99001
 m_bcast_d                               7.675652      149871
 augmentation_charge                     5.757522          35
 depsum                                  4.646547          35
 overl1                                  3.934480      149077
 setdij_                                 3.698547          63
 forhar                                  2.507661           2
 brmix                                   2.410566          35
 phaser                                  1.816082         182
 racc0                                   1.721893         681
 fewald                                  1.528110          73
 forloc                                  1.253640           1
 rpro1                                   1.175409         525
 choleski                                1.061653           4
 broyd                                   0.929266          35
 stufak                                  0.727966           1
 inisym                                  0.548583           1
 rspher_all                              0.478705          14
 setg0                                   0.364715          37
 fordep                                  0.346189           1
 fft_gq                                  0.325694          35
 truncate_high_frequency_w1              0.197091      199153
 brget                                   0.169589        3528
 strkin                                  0.138849           1
 pothar                                  0.128003          37
 brsav                                   0.071238         776
 posmap                                  0.062564           2
 rsp                                     0.061240          73
 chggra                                  0.052143           1
 strehar                                 0.026018           1
 brgrid                                  0.017793           1
 strelo                                  0.017287           1
 brpre                                   0.014440          70
 rcp                                     0.004415          73
 set_dd_magatom                          0.000377          37
 crpa_reader                             0.000307           1
 set_rsgf_all                            0.000118          37
 vectorpot                               0.000075          36
 potlok_metagga                          0.000070          36
 rotate_active_occupied_orbital          0.000015           1
 redis_pw_over_bands                     0.000000           1

Profiling took  49.936466 30.050424  0.008457  0.007695 seconds
Profiling took  47.420058 seconds