 vasp.6.3.2 27Jun22 (build Jan 03 2024 23:05:41) complex

 executed on           IFC15_impi date 2024.08.06  06:27:08

 INCAR:
   ENCUT = 600.00
   EDIFF = 1.00e-06
   ALGO = Normal
   ISMEAR = -5
   LORBIT = 11
   ICHARG = 11
   EMIN = -8.
   EMAX = 5.
   NEDOS = 3000
   LCHARG = .TRUE.
   LWAVE = .FALSE.
   LREAL = Auto
   NELM = 2000
   NCORE = 16
   KPAR = 8
   ISPIN = 2
   GGA = MK
   PARAM1 = 0.1234
   PARAM2 = 1.0
   AGGAC = 0.0
   LUSE_VDW = .TRUE.
   LASPH = .TRUE.
   LDIPOL = .TRUE.
   DIPOL = 0.5 0.5 0.5
   IDIPOL = 3

 POTCAR:    PAW_PBE Mo_sv 02Feb2006
 POTCAR:    PAW_PBE S 06Sep2000
|           W    W    AA    RRRRR   N    N  II  N    N   GGGG   !!!           |
|           W    W   A  A   R    R  NN   N  II  NN   N  G    G  !!!           |
|           W    W  A    A  R    R  N N  N  II  N N  N  G       !!!           |
|           W WW W  AAAAAA  RRRRR   N  N N  II  N  N N  G  GGG   !            |
|           WW  WW  A    A  R   R   N   NN  II  N   NN  G    G                |
|           W    W  A    A  R    R  N    N  II  N    N   GGGG   !!!           |
|     You use a magnetic or noncollinear calculation, but did not specify     |
|     the initial magnetic moment with the MAGMOM tag. Note that a            |
|     default of 1 will be used for all atoms. This ferromagnetic setup       |
|     may break the symmetry of the crystal, in particular it may rule        |
|     out finding an antiferromagnetic solution. Thence, we recommend         |
|     setting the initial magnetic moment manually or verifying carefully     |
|     that this magnetic setup is desired.                                    |

   TITEL  = PAW_PBE Mo_sv 02Feb2006
   POMASS =   95.940; ZVAL   =   14.000    mass and valenz
   ENMAX  =  242.676; ENMIN  =  182.007 eV

   TITEL  = PAW_PBE S 06Sep2000
   POMASS =   32.066; ZVAL   =    6.000    mass and valenz
   ENMAX  =  258.689; ENMIN  =  194.016 eV

 Optimization of the real space projectors (new method)

 maximal supplied QI-value         = 15.12
 optimisation between [QCUT,QGAM] = [ 12.55, 25.10] = [ 44.09,176.36] Ry
 Optimized for a Real-space Cutoff    1.47 Angstroem

   l    n(q)    QCUT    max X(q) W(low)/X(q) W(high)/X(q)  e(spline)
   0     11    12.548     3.559    0.18E-04    0.60E-05    0.19E-06
   0     11    12.548    20.730    0.37E-04    0.13E-04    0.98E-07
   1     11    12.548     3.279    0.80E-06    0.70E-06    0.27E-07
   1     11    12.548     4.693    0.72E-04    0.11E-03    0.38E-06
   2     10    12.548    67.616    0.34E-03    0.45E-03    0.54E-06
   2     10    12.548    62.420    0.34E-03    0.45E-03    0.54E-06
 Optimization of the real space projectors (new method)

 maximal supplied QI-value         = 19.84
 optimisation between [QCUT,QGAM] = [ 12.50, 25.00] = [ 43.76,175.03] Ry
 Optimized for a Real-space Cutoff    1.06 Angstroem

   l    n(q)    QCUT    max X(q) W(low)/X(q) W(high)/X(q)  e(spline)
   0      8    12.501   187.594    0.26E-03    0.17E-03    0.97E-07
   0      8    12.501   164.243    0.26E-03    0.17E-03    0.96E-07
   1      7    12.501    67.533    0.50E-03    0.61E-03    0.91E-07
   1      7    12.501    50.729    0.48E-03    0.60E-03    0.90E-07
|               ----> ADVICE to this user running VASP <----                  |
|     You enforced a specific xc type in the INCAR file but a different       |
|     type was found in the POTCAR file.                                      |
|     I HOPE YOU KNOW WHAT YOU ARE DOING!                                     |

  PAW_PBE Mo_sv 02Feb2006               :
  PAW_PBE S 06Sep2000                   :

 POSCAR: Mo  S
  positions in direct lattice
  velocities in cartesian coordinates
 exchange correlation table for  LEXCH =       43
   RHO(1)=    0.500       N(1)  =     2000
   RHO(2)=  100.500       N(2)  =     4000

 VTST: version 4.1, (05/19/21)

 CHAIN: initializing optimizer

 OPT: Using VASP Dynamics algorithm
 CHAIN: Read ICHAIN            0

 POSCAR: Mo  S
  positions in direct lattice
  velocities in cartesian coordinates

 ion  position               nearest neighbor table
   1  0.133  0.067  0.500- 159 2.41 144 2.41 138 2.41 162 2.41 147 2.41 141 2.41  62 3.16  20 3.16
                            49 3.16  71 3.16  72 3.16  67 3.16
   2  0.667  0.733  0.670- 194 2.41 106 2.41 117 2.41 197 2.41 108 2.41 114 2.41  32 3.16   8 3.16
                            37 3.16  64 3.16  55 3.16  42 3.16
   3  0.267  0.933  0.670- 216 2.41 140 2.41 155 2.41 143 2.41 219 2.41 149 2.41  74 3.16   9 3.16
                            51 3.16  28 3.16  50 3.16  25 3.16
   4  0.267  0.933  0.330- 218 2.41 142 2.41 148 2.41 215 2.41 139 2.41 146 2.41  75 3.16  10 3.16
                            52 3.16  70 3.16  29 3.16  24 3.16
   5  0.333  0.867  0.500- 214 2.41 198 2.41 208 2.41 217 2.41 136 2.41 211 2.41  30 3.16  23 3.16
                            12 3.16  71 3.16  72 3.16  53 3.16
   6  0.733  0.867  0.500- 110 2.41  89 2.41 119 2.41  76 2.41 116 2.41 100 2.41  67 3.16  49 3.16
                            46 3.16  22 3.16  30 3.16  34 3.16
   7  0.667  0.933  0.330- 105 2.41 202 2.41  94 2.41 107 2.41 199 2.41  97 2.41  29 3.16  11 3.16
                            33 3.16  26 3.16  63 3.16  16 3.16
   8  0.667  0.933  0.670- 106 2.41 200 2.41  96 2.41 134 2.41 108 2.41  93 2.41  28 3.16   2 3.16
                            32 3.16  27 3.16  64 3.16  17 3.16
   9  0.267  0.733  0.670- 157 2.41 216 2.41 210 2.41 137 2.41 219 2.41 213 2.41  51 3.16   3 3.16
                            56 3.16  28 3.16  13 3.16  32 3.16
  10  0.267  0.733  0.330- 145 2.41 218 2.41 212 2.41 215 2.41 158 2.41 209 2.41  52 3.16   4 3.16
                            57 3.16  29 3.16  14 3.16  33 3.16
  11  0.667  0.733  0.330- 196 2.41 105 2.41 115 2.41 193 2.41 107 2.41 118 2.41  33 3.16   7 3.16
                            38 3.16  63 3.16  41 3.16  69 3.16
  12  0.333  0.667  0.500- 192 2.41 179 2.41 208 2.41 205 2.41 195 2.41 211 2.41  34 3.16  15 3.16
                            30 3.16  59 3.16  53 3.16   5 3.16
  13  0.267  0.533  0.670- 181 2.41 173 2.41 210 2.41 207 2.41 176 2.41 213 2.41  56 3.16  18 3.16
                            60 3.16   9 3.16  37 3.16  32 3.16
  14  0.267  0.533  0.330- 206 2.41 175 2.41 212 2.41 180 2.41 209 2.41 172 2.41  57 3.16  19 3.16
                            61 3.16  10 3.16  38 3.16  33 3.16
  15  0.333  0.467  0.500- 179 2.41 186 2.41 150 2.41 205 2.41 189 2.41 153 2.41  39 3.16  12 3.16
                            34 3.16  20 3.16  59 3.16  62 3.16
  16  0.867  0.133  0.330-  90 2.41  94 2.41 124 2.41 132 2.41  97 2.41 102 2.41  63 3.16  66 3.16
                            26 3.16  47 3.16   7 3.16  61 3.16
  17  0.867  0.133  0.670- 104 2.41  96 2.41  88 2.41  91 2.41  93 2.41 122 2.41  64 3.16  65 3.16
                            27 3.16  48 3.16   8 3.16  60 3.16
  18  0.267  0.333  0.670- 167 2.41 181 2.41 152 2.41 170 2.41 207 2.41 178 2.41  60 3.16  13 3.16
                            65 3.16  37 3.16  43 3.16  50 3.16
  19  0.267  0.333  0.330- 169 2.41 206 2.41 154 2.41 180 2.41 166 2.41 151 2.41  61 3.16  14 3.16
                            66 3.16  38 3.16  44 3.16  70 3.16
  20  0.333  0.267  0.500- 203 2.41 144 2.41 150 2.41 183 2.41 147 2.41 153 2.41  45 3.16  71 3.16
                            39 3.16   1 3.16  62 3.16  15 3.16
  21  0.933  0.267  0.500- 123 2.41 131 2.41 165 2.41  81 2.41  80 2.41 168 2.41  31 3.16  49 3.16
                            22 3.16  62 3.16  73 3.16  59 3.16
  22  0.733  0.067  0.500- 101 2.41 131 2.41 110 2.41  95 2.41  80 2.41  76 2.41  49 3.16  31 3.16
                            21 3.16   6 3.16  23 3.16  30 3.16
  23  0.533  0.067  0.500- 220 2.41 101 2.41 198 2.41 223 2.41  95 2.41 136 2.41  71 3.16  45 3.16
                             5 3.16  31 3.16  30 3.16  22 3.16
  24  0.467  0.133  0.330- 204 2.41 148 2.41 184 2.41 221 2.41 146 2.41 201 2.41  26 3.16  35 3.16
                            29 3.16  44 3.16  70 3.16   4 3.16
  25  0.467  0.133  0.670- 222 2.41 155 2.41 182 2.41 224 2.41 149 2.41 185 2.41  27 3.16  36 3.16
                            28 3.16  43 3.16  50 3.16   3 3.16
  26  0.667  0.133  0.330-  94 2.41 204 2.41  84 2.41  97 2.41  78 2.41 221 2.41  24 3.16  29 3.16
                             7 3.16  16 3.16  35 3.16  47 3.16
  27  0.667  0.133  0.670-  96 2.41 222 2.41  79 2.41  93 2.41 224 2.41  85 2.41  25 3.16  28 3.16
                             8 3.16  17 3.16  36 3.16  48 3.16
  28  0.467  0.933  0.670- 200 2.41 216 2.41 222 2.41 134 2.41 219 2.41 224 2.41   8 3.16  32 3.16
                            27 3.16   9 3.16   3 3.16  25 3.16
  29  0.467  0.933  0.330- 202 2.41 218 2.41 204 2.41 199 2.41 215 2.41 221 2.41   7 3.16  33 3.16
                            26 3.16  10 3.16   4 3.16  24 3.16
  30  0.533  0.867  0.500- 198 2.41 110 2.41 192 2.41 136 2.41 195 2.41  76 2.41   5 3.16  12 3.16
                             6 3.16  23 3.16  34 3.16  22 3.16
  31  0.733  0.267  0.500- 123 2.41 101 2.41  77 2.41  81 2.41  95 2.41  87 2.41  21 3.16  22 3.16
                            73 3.16  23 3.16  45 3.16  40 3.16
  32  0.467  0.733  0.670- 194 2.41 210 2.41 200 2.41 197 2.41 213 2.41 134 2.41   2 3.16  28 3.16
                             8 3.16   9 3.16  37 3.16  13 3.16
  33  0.467  0.733  0.330- 196 2.41 212 2.41 202 2.41 193 2.41 209 2.41 199 2.41  11 3.16  29 3.16
                             7 3.16  10 3.16  38 3.16  14 3.16
  34  0.533  0.667  0.500- 192 2.41 119 2.41 186 2.41 195 2.41 116 2.41 189 2.41  12 3.16  39 3.16
                            15 3.16  30 3.16  46 3.16   6 3.16
  35  0.667  0.333  0.330- 184 2.41 127 2.41  84 2.41 130 2.41 201 2.41  78 2.41  44 3.16  41 3.16
                            24 3.16  68 3.16  47 3.16  26 3.16
  36  0.667  0.333  0.670- 182 2.41 129 2.41  79 2.41 185 2.41 126 2.41  85 2.41  43 3.16  42 3.16
                            25 3.16  58 3.16  48 3.16  27 3.16
  37  0.467  0.533  0.670- 188 2.41 181 2.41 194 2.41 191 2.41 207 2.41 197 2.41  42 3.16  43 3.16
                             2 3.16  18 3.16  13 3.16  32 3.16
  38  0.467  0.533  0.330- 190 2.41 206 2.41 196 2.41 135 2.41 180 2.41 193 2.41  41 3.16  44 3.16
                            11 3.16  19 3.16  14 3.16  33 3.16
  39  0.533  0.467  0.500- 186 2.41 133 2.41 203 2.41 189 2.41 183 2.41 128 2.41  15 3.16  34 3.16
                            20 3.16  46 3.16  45 3.16  40 3.16
  40  0.733  0.467  0.500- 133 2.41 109 2.41  77 2.41 128 2.41  87 2.41 113 2.41  73 3.16  46 3.16
                            54 3.16  39 3.16  31 3.16  45 3.16
  41  0.667  0.533  0.330- 127 2.41 190 2.41 115 2.41 130 2.41 135 2.41 118 2.41  38 3.16  35 3.16
                            44 3.16  11 3.16  68 3.16  69 3.16
  42  0.667  0.533  0.670- 129 2.41 188 2.41 117 2.41 126 2.41 191 2.41 114 2.41  37 3.16  36 3.16
                            43 3.16   2 3.16  58 3.16  55 3.16
  43  0.467  0.333  0.670- 182 2.41 152 2.41 188 2.41 185 2.41 178 2.41 191 2.41  36 3.16  37 3.16
                            42 3.16  25 3.16  18 3.16  50 3.16
  44  0.467  0.333  0.330- 184 2.41 154 2.41 190 2.41 201 2.41 135 2.41 151 2.41  35 3.16  38 3.16
[...]
  254          m_sumb_d                              0.653750                         10   4
  255        m_sumb_d                              0.003688                            7   3
  256        fft3d_mpi                             1.098974                           82   3
  257          fftbrc_mpi                            1.036787                         82   4
  258            fftbas_plan_mpi                       1.036543                       82   5
  259              dfftw_execute                         0.307168                    246   6
  260              map_forward                           0.373559                     80   6
  261                map_gather                            0.086090                   40   7
  262                m_alltoallv_z                         0.249450                   40   7
  263                map_scatter                           0.037181                   40   7
  264              map_backward                          0.302696                     84   6
  265                map_gather                            0.034753                   42   7
  266                m_alltoallv_z                         0.157643                   42   7
  267                map_scatter                           0.109415                   42   7
  268        forhar                                2.340967                            2   3
  269          m_sumb_d                              0.009264                          2   4
  270        strehar                               0.017765                            1   3
  271          m_sumb_d                              0.000662                          1   4
  272        chggra                                0.057286                            1   3
  273          fft3d_mpi                             0.035182                          3   4
  274            fftbrc_mpi                            0.032945                        3   5
  275              fftbas_plan_mpi                       0.032936                      3   6
  276                dfftw_execute                         0.011360                    9   7
  277                map_backward                          0.006723                    2   7
  278                  map_gather                            0.000836                  1   8
  279                  m_alltoallv_z                         0.003136                  1   8
  280                  map_scatter                           0.002720                  1   8
  281                map_forward                           0.012874                    4   7
  282                  map_gather                            0.004388                  2   8
  283                  m_alltoallv_z                         0.006555                  2   8
  284                  map_scatter                           0.001886                  2   8
  285          m_sumb_d                              0.000102                          2   4
  286          pothar                                0.006164                          1   4
  287            m_sumb_d                              0.000433                        1   5
  288        m_bcast_d                             0.943339                            2   3
  289      potlok                               10.345418                              1   2
  290        fft3d_mpi                             1.150826                           86   3
  291          fftbrc_mpi                            1.087468                         86   4
  292            fftbas_plan_mpi                       1.087207                       86   5
  293              dfftw_execute                         0.315108                    258   6
  294              map_forward                           0.410352                     88   6
  295                map_gather                            0.091027                   46   7
  296                m_alltoallv_z                         0.278442                   46   7
  297                map_scatter                           0.040050                   46   7
  298              map_backward                          0.307456                     84   6
  299                map_gather                            0.034067                   42   7
  300                m_alltoallv_z                         0.164493                   42   7
  301                map_scatter                           0.108007                   42   7
  302        m_sumb_d                              0.001752                            8   3
  303        fewald                                0.001723                            2   3
  304          rsp                                   0.001563                          2   4
  305          rcp                                   0.000130                          2   4
  306        pothar                                0.003417                            1   3
  307          m_sumb_d                              0.000804                          1   4
  308        m_bcast_d                             0.004892                            2   3
  309      potlok_metagga                        0.000013                              1   2
  310      set_dd_magatom                        0.000001                              1   2
  311      set_dd_paw                            2.899941                              1   2
  312        set_rsgf_all                          0.000001                            1   3
  313        m_sumb_d                              2.899601                            8   3
  314      densta                             5356.509710                              1   2
  315        m_bcast_z                             0.000761                            1   3

 Flat profile

 densta                               5397.060021          11
 total_time                           2243.902225           1
 ggemm                                1622.573561       27973
 orth1                                 546.891243       64763
 eddav                                 400.097717          10
 dfftw_execute                         291.147851      401226
 m_sumb_d                              266.552444      271202
 sphpro_fast                           195.321356           2
 m_bcast_z                             165.460990       60078
 m_alltoall_d                           84.854539      319434
 m_alltoallv_z                          84.392823      133748
 lincom                                 81.223369          44
 fftbas_plan_mpi                        74.725396      133742
 map_scatter                            65.792990      133748
 map_gather                             63.146090      133748
 fftwav_mpi                             47.767638       90592
 crrexp_mul_work_add                    37.554338     9648450
 gemm                                   34.614862     4803525
 rpromu_gemm                            33.935927     4311225
 map_forward                            30.839076      181454
 crrexp_mul_wave                        27.416108    10515150
 vhamil                                 25.946052       42882
 rpromu                                 22.215231       19161
 racc0mu                                21.899268       21349
 potlok                                 19.621717           2
 lapack                                 16.759264       21533
 redis_pw                               11.073701      115894
 force_and_stress                        9.281924           1
 w1_copy                                 9.013231      128646
 eccp                                    7.530535       12840
 fftext_mpi                              7.411670       42882
 m_bcast_d                               3.577361       43973
 kinhamil                                3.396696       42882
 set_charge                              2.994926           1
 overl                                   2.697724       72928
 apply_precond                           2.527042       30042
 setup_precond                           2.335256       12840
 forhar                                  2.331703           2
 redis_proj                              2.232990      145940
 setdij_                                 1.467529          29
 stufak                                  1.453214           2
 forloc                                  1.170186           1
 overl1                                  1.076357       42882
 choleski                                1.050843           4
 map_backward                            0.845035       86030
 fft3d_mpi                               0.762121      133742
 phaser                                  0.658448          66
 elmin                                   0.646087           1
 hamiltmu                                0.592553       21533
 newband                                 0.534085       21573
 pw_charge                               0.500561         976
 inisym                                  0.487083           1
 fftbas_mpi                              0.456371      133474
 rspher_all                              0.454389          14
 racc0                                   0.259040         184
 raccmu_                                 0.255257       21533
 strnlr                                  0.214950           1
 rpro1                                   0.206309         144
 augmentation_charge                     0.130570           1
 strkin                                  0.127698           1
 rpro_isp                                0.127084          26
 w1_projall                              0.112944       15093
 fornlr                                  0.070952           1
 posmap                                  0.062706           2
 truncate_high_frequency_w1              0.058314       55722
 orthch                                  0.028246           1
 strelo                                  0.022100           1
 soft_charge                             0.018888           1
 strehar                                 0.017103           1
 chggra                                  0.015838           1
 depsum                                  0.015780           1
 pothar                                  0.011139           3
 rsp                                     0.009762           5
 fewald                                  0.007221           5
 set_dd_paw                              0.002480           3
 rcp                                     0.000859           5
 fftbrc_mpi                              0.000794         268
 fft_gq                                  0.000447           1
 fordep                                  0.000330           1
 crpa_reader                             0.000261           1
 proall                                  0.000090           1
 set_rsgf_all                            0.000052           3
 vectorpot                               0.000027           2
 potlok_metagga                          0.000027           2
 set_dd_magatom                          0.000019           3
 rotate_active_occupied_orbital          0.000014           1
 redis_pw_over_bands                     0.000001           1
  summed up times    11982.0490159988

 Accumulative profile

 total_time                          11982.049016           1
 densta                               5397.068463          11
 elmin                                3649.057327           1
 eddav                                3589.681895          10
 ggemm                                1622.573561       27973
 fft3d_mpi                             612.108547      133742
 fftbas_plan_mpi                       610.889261      133742
 fftbas_mpi                            607.825591      133474
 orth1                                 546.891243       64763
 fftwav_mpi                            476.531734       90592
 hamiltmu                              319.108924       21533
 dfftw_execute                         291.147851      401226
 m_sumb_d                              266.552444      271202
 sphpro_fast                           198.236140           2
 kinhamil                              190.434222       42882
 fftext_mpi                            187.037527       42882
 map_forward                           181.964608      181454
 m_bcast_z                             165.460990       60078
 force_and_stress                      134.855114           1
 rpro_isp                              113.259613          26
 raccmu_                               102.136097       21533
 racc0mu                               100.329315       21349
 rpromu                                 90.432924       19161
 newband                                88.690237       21573
 m_alltoall_d                           84.854539      319434
 m_alltoallv_z                          84.392823      133748
 lincom                                 81.223369          44
 strnlr                                 79.795798           1
 redis_pw                               73.282368      115894
 map_scatter                            65.792990      133748
 map_gather                             63.146090      133748
 map_backward                           63.051406       86030
 w1_projall                             61.910427       15093
 crrexp_mul_work_add                    37.554338     9648450
 gemm                                   34.614862     4803525
 rpromu_gemm                            33.935927     4311225
 crrexp_mul_wave                        27.416108    10515150
 fornlr                                 26.601877           1
 vhamil                                 25.946052       42882
 redis_proj                             24.878862      145940
 potlok                                 22.098192           2
 lapack                                 16.759264       21533
 orthch                                 12.067366           1
 set_charge                              9.020514           1
 w1_copy                                 9.013231      128646
 set_dd_paw                              8.817570           3
 proall                                  8.658191           1
 eccp                                    8.595921       12840
 soft_charge                             5.491050           1
 m_bcast_d                               3.577361       43973
 fftbrc_mpi                              3.520834         268
 setup_precond                           2.704841       12840
 overl                                   2.697724       72928
 apply_precond                           2.527042       30042
 forhar                                  2.340967           2
 setdij_                                 1.584343          29
 stufak                                  1.453214           2
 forloc                                  1.172033           1
 overl1                                  1.076357       42882
 choleski                                1.050843           4
 phaser                                  0.658448          66
 inisym                                  0.549789           1
 pw_charge                               0.500561         976
 racc0                                   0.475167         184
 rspher_all                              0.454389          14
 rpro1                                   0.326415         144
 fordep                                  0.325561           1
 fewald                                  0.293392           5
 depsum                                  0.265983           1
 augmentation_charge                     0.161401           1
 strkin                                  0.135115           1
 posmap                                  0.062706           2
 truncate_high_frequency_w1              0.058314       55722
 chggra                                  0.057286           1
 strelo                                  0.022791           1
 strehar                                 0.017765           1
 pothar                                  0.013068           3
 fft_gq                                  0.010044           1
 rsp                                     0.009762           5
 rcp                                     0.000859           5
 crpa_reader                             0.000261           1
 set_rsgf_all                            0.000052           3
 vectorpot                               0.000027           2
 potlok_metagga                          0.000027           2
 set_dd_magatom                          0.000019           3
 rotate_active_occupied_orbital          0.000014           1
 redis_pw_over_bands                     0.000001           1

Profiling took  16.130641  9.832457  0.008146  0.007453 seconds
Profiling took  15.216055 seconds