 vasp.6.3.2 27Jun22 (build Jan 03 2024 23:05:41) complex

 executed on           IFC15_impi date 2024.07.29  09:15:51

 INCAR:
   ENCUT = 600.00
   EDIFF = 1.00e-06
   EDIFFG = -0.05
   ALGO = Normal
   ISMEAR = 0
   SIGMA = 0.05
   LCHARG = .FALSE.
   LWAVE = .FALSE.
   LREAL = Auto
   NELM = 2000
   NSW = 5000
   NCORE = 16
   KPAR = 8
   ISPIN = 2
   GGA = MK
   PARAM1 = 0.1234
   PARAM2 = 1.0
   AGGAC = 0.0
   LUSE_VDW = .TRUE.
   LASPH = .TRUE.
   LDIPOL = .TRUE.
   DIPOL = 0.5 0.5 0.5
   IDIPOL = 3
   IBRION = 44
   POTIM = 0.015

 POTCAR:    PAW_PBE Mo_sv 02Feb2006
 POTCAR:    PAW_PBE S 06Sep2000
 POTCAR:    PAW_PBE C 08Apr2002
 POTCAR:    PAW_PBE H 15Jun2001
|           W    W    AA    RRRRR   N    N  II  N    N   GGGG   !!!           |
|           W    W   A  A   R    R  NN   N  II  NN   N  G    G  !!!           |
|           W    W  A    A  R    R  N N  N  II  N N  N  G       !!!           |
|           W WW W  AAAAAA  RRRRR   N  N N  II  N  N N  G  GGG   !            |
|           WW  WW  A    A  R   R   N   NN  II  N   NN  G    G                |
|           W    W  A    A  R    R  N    N  II  N    N   GGGG   !!!           |
|     You use a magnetic or noncollinear calculation, but did not specify     |
|     the initial magnetic moment with the MAGMOM tag. Note that a            |
|     default of 1 will be used for all atoms. This ferromagnetic setup       |
|     may break the symmetry of the crystal, in particular it may rule        |
|     out finding an antiferromagnetic solution. Thence, we recommend         |
|     setting the initial magnetic moment manually or verifying carefully     |
|     that this magnetic setup is desired.                                    |

   TITEL  = PAW_PBE Mo_sv 02Feb2006
   POMASS =   95.940; ZVAL   =   14.000    mass and valenz
   ENMAX  =  242.676; ENMIN  =  182.007 eV

   TITEL  = PAW_PBE S 06Sep2000
   POMASS =   32.066; ZVAL   =    6.000    mass and valenz
   ENMAX  =  258.689; ENMIN  =  194.016 eV

   TITEL  = PAW_PBE C 08Apr2002
   POMASS =   12.011; ZVAL   =    4.000    mass and valenz
   ENMAX  =  400.000; ENMIN  =  300.000 eV

   TITEL  = PAW_PBE H 15Jun2001
   POMASS =    1.000; ZVAL   =    1.000    mass and valenz
   ENMAX  =  250.000; ENMIN  =  200.000 eV

 Optimization of the real space projectors (new method)

 maximal supplied QI-value         = 15.12
 optimisation between [QCUT,QGAM] = [ 12.55, 25.10] = [ 44.09,176.36] Ry
 Optimized for a Real-space Cutoff    1.47 Angstroem

   l    n(q)    QCUT    max X(q) W(low)/X(q) W(high)/X(q)  e(spline)
   0     11    12.548     3.559    0.18E-04    0.60E-05    0.19E-06
   0     11    12.548    20.730    0.37E-04    0.13E-04    0.98E-07
   1     11    12.548     3.279    0.80E-06    0.70E-06    0.27E-07
   1     11    12.548     4.693    0.72E-04    0.11E-03    0.38E-06
   2     10    12.548    67.616    0.34E-03    0.45E-03    0.54E-06
   2     10    12.548    62.420    0.34E-03    0.45E-03    0.54E-06
 Optimization of the real space projectors (new method)

[...]

   l    n(q)    QCUT    max X(q) W(low)/X(q) W(high)/X(q)  e(spline)
   0      8    12.315   115.676    0.34E-03    0.18E-03    0.23E-06
   0      8    12.315    87.132    0.34E-03    0.18E-03    0.22E-06
   1      7    12.315     4.429    0.45E-03    0.12E-03    0.18E-06
   1      7    12.315     2.733    0.35E-03    0.97E-04    0.15E-06
 Optimization of the real space projectors (new method)

 maximal supplied QI-value         = 34.20
 optimisation between [QCUT,QGAM] = [ 12.31, 24.97] = [ 42.46,174.58] Ry
 Optimized for a Real-space Cutoff    1.00 Angstroem

   l    n(q)    QCUT    max X(q) W(low)/X(q) W(high)/X(q)  e(spline)
   0      7    12.313    19.460    0.14E-03    0.42E-03    0.16E-06
   0      7    12.313    12.209    0.12E-03    0.40E-03    0.16E-06
   1      7    12.313     4.655    0.33E-03    0.59E-03    0.89E-07
|               ----> ADVICE to this user running VASP <----                  |
|     You enforced a specific xc type in the INCAR file but a different       |
|     type was found in the POTCAR file.                                      |
|     I HOPE YOU KNOW WHAT YOU ARE DOING!                                     |

  PAW_PBE Mo_sv 02Feb2006               :
  PAW_PBE S 06Sep2000                   :
  PAW_PBE C 08Apr2002                   :
  PAW_PBE H 15Jun2001                   :

 POSCAR: Mo S  H  C  H
  positions in direct lattice
  velocities in cartesian coordinates
 exchange correlation table for  LEXCH =       43
   RHO(1)=    0.500       N(1)  =     2000
   RHO(2)=  100.500       N(2)  =     4000

 VTST: version 4.1, (05/19/21)

 CHAIN: initializing optimizer

 OPT: Using VASP Dynamics algorithm
 CHAIN: Read ICHAIN            0

 POSCAR: Mo S  H  C  H
  positions in direct lattice
  velocities in cartesian coordinates

 ion  position               nearest neighbor table
   1  0.933  0.665  0.500- 183 2.41  88 2.41 214 2.41 158 2.41 184 2.41 176 2.41  59 3.16   6 3.16
                            20 3.16  21 3.16  27 3.16  26 3.16
   2  0.865  0.531  0.671- 161 2.41 215 2.41 182 2.41 172 2.41 210 2.41 218 2.42   8 3.16  11 3.17
                             4 3.17   5 3.17  56 3.17  62 3.17
   3  0.066  0.533  0.330- 209 2.41 193 2.41  99 2.41 111 2.41 160 2.41 105 2.41  39 3.16   7 3.16
                            30 3.16  52 3.16  13 3.17  22 3.17
   4  0.066  0.531  0.670- 143 2.41 161 2.41 106 2.41 204 2.41 210 2.41  90 2.41  44 3.16   8 3.16
                            14 3.16  11 3.16   2 3.17  40 3.17
   5  0.867  0.732  0.670- 207 2.40 112 2.40 185 2.41 148 2.41 172 2.41 182 2.41  28 3.14   8 3.15
                            18 3.17   2 3.17  46 3.18  56 3.18
   6  0.133  0.665  0.500- 141 2.41  92 2.41 104 2.41  88 2.41 125 2.41 184 2.41  12 3.16   1 3.16
                            27 3.16  26 3.16  48 3.17  41 3.17
   7  0.866  0.333  0.330- 174 2.41 213 2.41 209 2.41 168 2.41 160 2.41 151 2.41   3 3.16  30 3.16
                            37 3.16  63 3.16  22 3.17  73 3.17
   8  0.065  0.731  0.670- 188 2.41 182 2.41 143 2.41 172 2.41 204 2.41 191 2.41   5 3.15  50 3.16
                            44 3.16   4 3.16   2 3.16  28 3.17
   9  0.264  0.130  0.668- 200 2.39  98 2.40  95 2.40 145 2.41 197 2.41  77 2.42  33 3.13  28 3.14
                            19 3.15  50 3.16  35 3.17  75 3.19
  10  0.933  0.065  0.500-  93 2.41 170 2.41 220 2.41  96 2.41 149 2.41 179 2.41  32 3.16  57 3.16
                            21 3.17  53 3.17  47 3.17  16 3.17
  11  0.866  0.331  0.670- 210 2.41 175 2.41 211 2.41 178 2.41 161 2.41 169 2.41  36 3.16  14 3.16
                             4 3.16   2 3.17  72 3.17  62 3.17
  12  0.133  0.466  0.500- 104 2.41 101 2.41 100 2.41 138 2.41  92 2.41  78 2.41   6 3.16  41 3.16
                            16 3.16  38 3.16  27 3.17  53 3.17
  13  0.066  0.733  0.330- 173 2.41 193 2.41 190 2.41 152 2.41 111 2.41 187 2.41  52 3.16  49 3.16
                            22 3.16  23 3.17  29 3.17   3 3.17
  14  0.066  0.331  0.670-  90 2.40 103 2.41 178 2.41 211 2.41 107 2.41 106 2.41  36 3.16   4 3.16
                            11 3.16  40 3.17  19 3.17  35 3.17
  15  0.066  0.133  0.330- 102 2.41 180 2.41  97 2.41  91 2.41  94 2.41 221 2.41  29 3.16  24 3.16
                            34 3.16  17 3.16  30 3.16  37 3.17
  16  0.133  0.266  0.500- 101 2.41  93 2.41 201 2.41 100 2.41  96 2.41 198 2.41  53 3.16  12 3.16
                            42 3.16  32 3.17  38 3.17  10 3.17
  17  0.866  0.933  0.330-  85 2.41 180 2.41 162 2.41 221 2.41 147 2.41 156 2.41  54 3.16  37 3.16
                            23 3.16  43 3.16  15 3.16  29 3.17
  18  0.866  0.932  0.670- 154 2.40 155 2.41 157 2.41 148 2.41 181 2.41 112 2.41  46 3.15  19 3.16
                            36 3.16  28 3.16  45 3.16   5 3.17
  19  0.065  0.131  0.669-  95 2.41 154 2.41 181 2.41 107 2.41 103 2.41  98 2.41   9 3.15  18 3.16
                            36 3.16  28 3.16  14 3.17  35 3.17
  20  0.733  0.665  0.500- 214 2.41 217 2.41 186 2.41 144 2.41 176 2.41 222 2.41  64 3.16  59 3.16
                            65 3.16   1 3.16  21 3.16  47 3.16
  21  0.933  0.865  0.500- 194 2.41 176 2.41 149 2.41 179 2.41 189 2.41 214 2.41  47 3.16   1 3.16
                            20 3.16  26 3.16  10 3.17  32 3.17
  22  0.866  0.533  0.330- 209 2.41 216 2.41 173 2.41 152 2.41 160 2.41 219 2.41  23 3.16  58 3.16
                            63 3.16  13 3.16   3 3.17   7 3.17
  23  0.866  0.733  0.330-  85 2.41 224 2.41 173 2.41 147 2.41 208 2.41 152 2.41  22 3.16  58 3.16
                            29 3.16  17 3.16  13 3.17  43 3.17
  24  0.266  0.133  0.330- 196 2.41  94 2.41  97 2.41 202 2.41 199 2.41 195 2.41  51 3.16  34 3.16
                            49 3.16  15 3.16  71 3.17  29 3.17
  25  0.333  0.065  0.500- 117 2.41 120 2.41 192 2.41 203 2.41 114 2.41 123 2.41  48 3.16  26 3.16
                            32 3.17  55 3.17  31 3.17  42 3.17
  26  0.133  0.865  0.500- 184 2.41 194 2.41  88 2.41 189 2.41 120 2.41 123 2.41  25 3.16   6 3.16
                            48 3.16   1 3.16  21 3.16  32 3.17
  27  0.933  0.465  0.500- 183 2.41 104 2.41 212 2.41 158 2.41 171 2.41  92 2.41  53 3.16   6 3.16
                            67 3.16   1 3.16  59 3.16  12 3.17
  28  0.065  0.931  0.669- 148 2.40  95 2.41  98 2.41 188 2.41 112 2.41 191 2.41   9 3.14   5 3.14
                            18 3.16  19 3.16  50 3.17   8 3.17
  29  0.066  0.933  0.330-  85 2.41  97 2.41 187 2.41 190 2.41  94 2.41 147 2.41  15 3.16  49 3.16
                            23 3.16  13 3.17  24 3.17  17 3.17
  30  0.066  0.333  0.330-  99 2.41 102 2.41 213 2.41 105 2.41  91 2.41 151 2.41  37 3.16   7 3.16
                             3 3.16  34 3.16  39 3.16  15 3.16
  31  0.533  0.265  0.500- 117 2.41 177 2.41 136 2.41  89 2.41 114 2.41 167 2.41  55 3.16  59 3.16
                            65 3.16  67 3.17  42 3.17  25 3.17
  32  0.133  0.066  0.500-  96 2.41 192 2.41  93 2.41 189 2.41 203 2.41 194 2.41  10 3.16  26 3.17
                            25 3.17  16 3.17  21 3.17  42 3.17
  33  0.463  0.326  0.668- 240 2.07  76 2.36  81 2.42 200 2.43  77 2.44  84 2.44 225 3.07   9 3.13
                            75 3.13  62 3.16  35 3.16  56 3.24  61 3.24
  34  0.266  0.333  0.330- 102 2.41 139 2.41 202 2.41 199 2.41  79 2.41  91 2.41  60 3.16  24 3.16
                            39 3.16  30 3.16  15 3.16  51 3.17
  35  0.266  0.331  0.670- 200 2.39 140 2.40 107 2.41 103 2.41  80 2.42  77 2.42  33 3.16   9 3.17
                            19 3.17  40 3.17  14 3.17  61 3.18
  36  0.866  0.131  0.670- 154 2.41 153 2.41 178 2.41 181 2.41 211 2.41 165 2.41  18 3.16  11 3.16
                            45 3.16  14 3.16  72 3.16  19 3.16
  37  0.866  0.133  0.330- 164 2.41 180 2.41 213 2.41 221 2.41 146 2.41 151 2.41  30 3.16   7 3.16
                            73 3.16  17 3.16  15 3.17  54 3.17
  38  0.333  0.466  0.500- 198 2.41 201 2.41  82 2.41  86 2.41 138 2.41  78 2.41  64 3.16  41 3.16
                            65 3.16  12 3.16  42 3.17  16 3.17
  39  0.266  0.533  0.330- 109 2.41  79 2.41 139 2.41  99 2.41 105 2.41 127 2.41   3 3.16  34 3.16
                            60 3.16  74 3.16  30 3.16  52 3.17
[...]
  299          m_sumb_d                              0.000456                          2   4
  300        strehar                               0.013117                            1   3
  301          m_sumb_d                              0.000851                          1   4
  302        chggra                                0.035273                            1   3
  303          fft3d_mpi                             0.025151                          3   4
  304            fftbrc_mpi                            0.023504                        3   5
  305              fftbas_plan_mpi                       0.023492                      3   6
  306                dfftw_execute                         0.006163                    9   7
  307                map_backward                          0.005140                    2   7
  308                  map_gather                            0.000582                  1   8
  309                  m_alltoallv_z                         0.003679                  1   8
  310                  map_scatter                           0.000756                  1   8
  311                map_forward                           0.009906                    4   7
  312                  map_gather                            0.001247                  2   8
  313                  m_alltoallv_z                         0.007091                  2   8
  314                  map_scatter                           0.001524                  2   8
  315          m_sumb_d                              0.000106                          2   4
  316          pothar                                0.002018                          1   4
  317            m_sumb_d                              0.000632                        1   5
  318        brmix                                 0.080938                            1   3
  319          m_sumb_d                              0.001957                          6   4
  320          brpre                                 0.000192                          2   4
  321          setg0                                 0.004848                          1   4
  322          broyd                                 0.051569                          1   4
  323            brget                                 0.010108                      366   5
  324            brsav                                 0.005869                      163   5
  325            m_sumb_d                              0.004236                       47   5
  326          m_bcast_z                             0.015429                          1   4
  327          m_bcast_d                             0.000347                          1   4
  328        m_bcast_d                             0.001477                            2   3
  329      potlok                                6.097684                              1   2
  330        fft3d_mpi                             0.850287                           86   3
  331          fftbrc_mpi                            0.806688                         86   4
  332            fftbas_plan_mpi                       0.806409                       86   5
  333              dfftw_execute                         0.179401                    258   6
  334              map_forward                           0.340867                     88   6
  335                map_gather                            0.025263                   46   7
  336                m_alltoallv_z                         0.281721                   46   7
  337                map_scatter                           0.033033                   46   7
  338              map_backward                          0.231291                     84   6
  339                map_gather                            0.026132                   42   7
  340                m_alltoallv_z                         0.173961                   42   7
  341                map_scatter                           0.030415                   42   7
  342        m_sumb_d                              0.014702                            8   3
  343        fewald                                0.001663                            2   3
  344          rsp                                   0.001550                          2   4
  345          rcp                                   0.000096                          2   4
  346        pothar                                0.001934                            1   3
  347          m_sumb_d                              0.000621                          1   4
  348        m_bcast_d                             0.005765                            2   3
  349      potlok_metagga                        0.000001                              1   2
  350      set_dd_magatom                        0.000001                              1   2
  351      set_dd_paw                            2.890721                              1   2
  352        set_rsgf_all                          0.000002                            1   3
  353        m_sumb_d                              2.890424                            8   3
  354      densta                                0.003532                              1   2
  355        m_sumb_d                              0.002355                           11   3

 Flat profile

 ggemm                                3141.156622      114190
 eddav                                1443.564946          80
 orth1                                1137.863860      263932
 m_sumb_d                              803.624722      631589
 dfftw_execute                         600.258592      803742
 total_time                            508.409589           1
 potlok                                403.388467          77
 m_alltoall_d                          387.437075      643530
 m_alltoallv_z                         317.816410      268220
 lincom                                163.354624         162
 fftbas_plan_mpi                       149.673449      267914
 elmin                                 149.195255           1
 map_gather                            136.993864      268220
 map_scatter                           134.870156      268220
 racc0                                 132.954434       87950
 fftwav_mpi                             98.423503      172952
 rpro1                                  95.347094       61710
 crrexp_mul_work_add                    84.725101    20932100
 m_bcast_z                              73.801613      102869
 lapack                                 67.313343       87950
 map_forward                            64.607095      352766
 vhamil                                 58.834072       87950
 crrexp_mul_wave                        45.264919    15701812
 redis_pw                               20.665737      237934
 w1_copy                                19.017180      263850
 eccp                                   16.510255       26240
 fftext_mpi                             15.134005       87950
 pw_charge                              10.994835       19028
 m_bcast_d                              10.883816      176136
 kinhamil                                7.279943       87950
 apply_precond                           5.349002       61710
 force_and_stress                        5.221509           1
 overl                                   5.109457      149662
 redis_proj                              4.853009      299646
 setdij_                                 4.698576         104
 fft3d_mpi                               4.669710      267914
 setup_precond                           4.651539       26240
 augmentation_charge                     4.475272          76
 overl1                                  3.204359       87950
 rpromu_gemm                             2.724783      253708
 rpromu                                  1.933304        1066
 map_backward                            1.880139      183062
 phaser                                  1.688112         173
 broyd                                   1.683134          76
 hamiltmu                                1.438281       87950
 forhar                                  1.256972           2
 newband                                 1.089581       88110
 raccmu_                                 0.845786       87950
 fftbas_mpi                              0.817997      260902
 brmix                                   0.658552          76
 forloc                                  0.629640           1
 choleski                                0.593479           2
 rspher_all                              0.479437          14
 soft_charge                             0.465760          76
 brget                                   0.400247       14607
 stufak                                  0.385583           1
 setg0                                   0.373554          78
 w1_projall                              0.357302       61710
 depsum                                  0.315575          76
 densta                                  0.211131          81
 brsav                                   0.139946        3504
 truncate_high_frequency_w1              0.125946      114190
 rsp                                     0.124405         155
 inisym                                  0.105074           1
 pothar                                  0.104806          78
 strnlr                                  0.056803           1
 set_charge                              0.055647          76
 rpro_isp                                0.038784          13
 orthch                                  0.033303           1
 strkin                                  0.032412           1
 fft_gq                                  0.031415          76
 fornlr                                  0.024842           1
 fftbrc_mpi                              0.023102        7012
 set_dd_paw                              0.021082          78
 brpre                                   0.018126         152
 strelo                                  0.012858           1
 strehar                                 0.012266           1
 fewald                                  0.008720         155
 brgrid                                  0.008523           1
 rcp                                     0.008370         155
 chggra                                  0.007998           1
 fordep                                  0.000324           1
 potlok_metagga                          0.000304          77
 crpa_reader                             0.000247           1
 set_rsgf_all                            0.000172          78
 set_dd_magatom                          0.000169          78
 posmap                                  0.000114           2
 vectorpot                               0.000112          77
 proall                                  0.000064           1
 rotate_active_occupied_orbital          0.000014           1
 redis_pw_over_bands                     0.000002           1
  summed up times    10362.8213059902

 Accumulative profile

 total_time                          10362.821306           1
 elmin                                9731.123708           1
 eddav                                8770.768164          80
 ggemm                                3141.156622      114190
 fft3d_mpi                            1411.610514      267914
 fftbas_plan_mpi                      1406.099705      267914
 fftbas_mpi                           1346.247306      260902
 orth1                                1137.863860      263932
 fftwav_mpi                           1066.254046      172952
 m_sumb_d                              803.624722      631589
 hamiltmu                              708.849008       87950
 dfftw_execute                         600.258592      803742
 map_forward                           504.403333      352766
 potlok                                465.900049          77
 kinhamil                              401.972930       87950
 fftext_mpi                            394.692987       87950
 m_alltoall_d                          387.437075      643530
 redis_pw                              324.992280      237934
 m_alltoallv_z                         317.816410      268220
 newband                               266.808566       88110
 raccmu_                               246.603725       87950
 racc0                                 242.553581       87950
 set_dd_paw                            226.038343          78
 lincom                                163.354624         162
 w1_projall                            152.677365       61710
 rpro1                                 152.320062       61710
 map_backward                          151.764331      183062
 map_gather                            136.993864      268220
 map_scatter                           134.870156      268220
 set_charge                            120.774507          76
 soft_charge                           113.699364          76
 redis_proj                             87.963541      299646
 crrexp_mul_work_add                    84.725101    20932100
 m_bcast_z                              73.801613      102869
 lapack                                 67.313343       87950
 fftbrc_mpi                             60.693498        7012
 vhamil                                 58.834072       87950
 crrexp_mul_wave                        45.264919    15701812
 force_and_stress                       42.348836           1
 rpro_isp                               29.785013          13
 strnlr                                 21.264578           1
 eccp                                   20.591525       26240
 w1_copy                                19.017180      263850
 pw_charge                              10.994835       19028
 m_bcast_d                              10.883816      176136
 rpromu                                  7.853937        1066
 fornlr                                  7.073313           1
 augmentation_charge                     6.483059          76
 setdij_                                 5.512675         104
 setup_precond                           5.391941       26240
 apply_precond                           5.349002       61710
 overl                                   5.109457      149662
 brmix                                   5.072084          76
 orthch                                  4.106020           1
 overl1                                  3.204359       87950
 rpromu_gemm                             2.724783      253708
 densta                                  2.687666          81
 broyd                                   2.476952          76
 proall                                  2.352703           1
 phaser                                  1.688112         173
 forhar                                  1.257428           2
 fft_gq                                  0.671809          76
 forloc                                  0.629827           1
 choleski                                0.593479           2
 depsum                                  0.536437          76
 rspher_all                              0.479437          14
 brget                                   0.400247       14607
 stufak                                  0.385583           1
 setg0                                   0.373554          78
 fordep                                  0.311466           1
 fewald                                  0.255866         155
 pothar                                  0.158041          78
 brsav                                   0.139946        3504
 truncate_high_frequency_w1              0.125946      114190
 rsp                                     0.124405         155
 inisym                                  0.105188           1
 chggra                                  0.035273           1
 strkin                                  0.033300           1
 brpre                                   0.018126         152
 strelo                                  0.013403           1
 strehar                                 0.013117           1
 brgrid                                  0.008523           1
 rcp                                     0.008370         155
 potlok_metagga                          0.000304          77
 crpa_reader                             0.000247           1
 set_rsgf_all                            0.000172          78
 set_dd_magatom                          0.000169          78
 posmap                                  0.000114           2
 vectorpot                               0.000112          77
 rotate_active_occupied_orbital          0.000014           1
 redis_pw_over_bands                     0.000002           1

Profiling took  23.568159 13.688155  0.009105  0.008272 seconds
Profiling took  23.312794 seconds