 vasp.6.3.2 27Jun22 (build Jan 03 2024 23:05:41) complex

 executed on           IFC15_impi date 2024.07.19  02:52:51

 INCAR:
   ENCUT = 600.00
   EDIFF = 1.00e-06
   EDIFFG = -0.03
   IBRION = 2
   ALGO = Normal
   ISMEAR = 0
   SIGMA = 0.05
   LCHARG = .FALSE.
   LWAVE = .FALSE.
   LREAL = Auto
   NELM = 2000
   NSW = 5000
   NCORE = 16
   KPAR = 4
   ISPIN = 2
   GGA = MK
   PARAM1 = 0.1234
   PARAM2 = 1.0
   AGGAC = 0.0
   LUSE_VDW = .TRUE.
   LASPH = .TRUE.
   LDIPOL = .TRUE.
   DIPOL = 0.5 0.5 0.5
   IDIPOL = 3

 POTCAR:    PAW_PBE C 08Apr2002
 POTCAR:    PAW_PBE H 15Jun2001
 POTCAR:    PAW_PBE Mo_sv 02Feb2006
 POTCAR:    PAW_PBE N 08Apr2002
 POTCAR:    PAW_PBE S 06Sep2000
|           W    W    AA    RRRRR   N    N  II  N    N   GGGG   !!!           |
|           W    W   A  A   R    R  NN   N  II  NN   N  G    G  !!!           |
|           W    W  A    A  R    R  N N  N  II  N N  N  G       !!!           |
|           W WW W  AAAAAA  RRRRR   N  N N  II  N  N N  G  GGG   !            |
|           WW  WW  A    A  R   R   N   NN  II  N   NN  G    G                |
|           W    W  A    A  R    R  N    N  II  N    N   GGGG   !!!           |
|     You use a magnetic or noncollinear calculation, but did not specify     |
|     the initial magnetic moment with the MAGMOM tag. Note that a            |
|     default of 1 will be used for all atoms. This ferromagnetic setup       |
|     may break the symmetry of the crystal, in particular it may rule        |
|     out finding an antiferromagnetic solution. Thence, we recommend         |
|     setting the initial magnetic moment manually or verifying carefully     |
|     that this magnetic setup is desired.                                    |

   TITEL  = PAW_PBE C 08Apr2002
   POMASS =   12.011; ZVAL   =    4.000    mass and valenz
   ENMAX  =  400.000; ENMIN  =  300.000 eV

   TITEL  = PAW_PBE H 15Jun2001
   POMASS =    1.000; ZVAL   =    1.000    mass and valenz
   ENMAX  =  250.000; ENMIN  =  200.000 eV

   TITEL  = PAW_PBE Mo_sv 02Feb2006
   POMASS =   95.940; ZVAL   =   14.000    mass and valenz
   ENMAX  =  242.676; ENMIN  =  182.007 eV

   TITEL  = PAW_PBE N 08Apr2002
   POMASS =   14.001; ZVAL   =    5.000    mass and valenz
   ENMAX  =  400.000; ENMIN  =  300.000 eV

   TITEL  = PAW_PBE S 06Sep2000
   POMASS =   32.066; ZVAL   =    6.000    mass and valenz
   ENMAX  =  258.689; ENMIN  =  194.016 eV

 Optimization of the real space projectors (new method)

 maximal supplied QI-value         = 25.13
 optimisation between [QCUT,QGAM] = [ 12.32, 24.88] = [ 42.47,173.37] Ry
 Optimized for a Real-space Cutoff    1.06 Angstroem

   l    n(q)    QCUT    max X(q) W(low)/X(q) W(high)/X(q)  e(spline)
   0      8    12.315   115.676    0.34E-03    0.18E-03    0.23E-06
   0      8    12.315    87.132    0.34E-03    0.18E-03    0.22E-06
   1      7    12.315     4.429    0.45E-03    0.12E-03    0.18E-06
   1      7    12.315     2.733    0.35E-03    0.97E-04    0.15E-06
 Optimization of the real space projectors (new method)

[...]

   l    n(q)    QCUT    max X(q) W(low)/X(q) W(high)/X(q)  e(spline)
   0      9    12.315    79.467    0.14E-03    0.22E-04    0.37E-06
   0      9    12.315    66.151    0.14E-03    0.23E-04    0.36E-06
   1      8    12.315    22.077    0.30E-03    0.54E-03    0.45E-06
   1      8    12.315    15.894    0.30E-03    0.55E-03    0.45E-06
 Optimization of the real space projectors (new method)

 maximal supplied QI-value         = 19.84
 optimisation between [QCUT,QGAM] = [ 12.50, 25.00] = [ 43.76,175.03] Ry
 Optimized for a Real-space Cutoff    1.06 Angstroem

   l    n(q)    QCUT    max X(q) W(low)/X(q) W(high)/X(q)  e(spline)
   0      8    12.501   187.594    0.26E-03    0.17E-03    0.97E-07
   0      8    12.501   164.243    0.26E-03    0.17E-03    0.96E-07
   1      7    12.501    67.533    0.50E-03    0.61E-03    0.91E-07
   1      7    12.501    50.729    0.48E-03    0.60E-03    0.90E-07
|               ----> ADVICE to this user running VASP <----                  |
|     You enforced a specific xc type in the INCAR file but a different       |
|     type was found in the POTCAR file.                                      |
|     I HOPE YOU KNOW WHAT YOU ARE DOING!                                     |

  PAW_PBE C 08Apr2002                   :
  PAW_PBE H 15Jun2001                   :
  PAW_PBE Mo_sv 02Feb2006               :
  PAW_PBE N 08Apr2002                   :
  PAW_PBE S 06Sep2000                   :

 POSCAR: C  H  Mo N  S
  positions in direct lattice
  velocities in cartesian coordinates
 exchange correlation table for  LEXCH =       43
   RHO(1)=    0.500       N(1)  =     2000
   RHO(2)=  100.500       N(2)  =     4000

 VTST: version 4.1, (05/19/21)

 CHAIN: initializing optimizer

 OPT: Using VASP Conjugate-Gradient optimizer
 CHAIN: Read ICHAIN            0

 POSCAR: C  H  Mo N  S
  positions in direct lattice
  velocities in cartesian coordinates

 ion  position               nearest neighbor table
   1  0.556  0.543  0.774-   6 1.41   2 1.41 130 1.79
   2  0.636  0.550  0.794-   9 1.09   4 1.39   1 1.41
   3  0.499  0.581  0.830-  11 1.09   6 1.39   5 1.41
   4  0.648  0.573  0.831-  13 1.09   2 1.39   5 1.41
   5  0.579  0.588  0.850-  89 1.38   4 1.41   3 1.41
   6  0.488  0.560  0.793-  12 1.09   3 1.39   1 1.41
   7  0.549  0.633  0.899-  89 1.01
   8  0.654  0.626  0.899-  89 1.01
   9  0.688  0.535  0.779-   2 1.09
  10  0.554  0.412  0.693-  66 1.72  46 1.92
  11  0.445  0.591  0.845-   3 1.09
  12  0.424  0.553  0.779-   6 1.09
  13  0.710  0.577  0.845-   4 1.09
  14  0.731  0.663  0.500- 172 2.41 132 2.41 227 2.41 182 2.41 203 2.41 175 2.41  76 3.16  22 3.16
                            60 3.16  70 3.16  71 3.16  34 3.17
  15  0.865  0.330  0.330- 239 2.41 134 2.41 196 2.41 180 2.41 167 2.41 140 2.41  84 3.16  25 3.16
                            35 3.16  50 3.16  28 3.17  75 3.17
  16  0.865  0.328  0.670- 139 2.41 177 2.41 178 2.41 168 2.41 133 2.41 176 2.41  24 3.16  49 3.16
                            83 3.17  26 3.17  74 3.17  43 3.17
  17  0.932  0.063  0.500- 194 2.41 225 2.41 201 2.41 218 2.41 138 2.41 215 2.41  67 3.16  34 3.16
                            77 3.16  29 3.16  45 3.16  60 3.17
  18  0.264  0.128  0.669- 164 2.40 217 2.41 211 2.41 205 2.41 208 2.41 120 2.42  66 3.13  32 3.16
                            41 3.16  48 3.16  63 3.17  85 3.18
  19  0.064  0.728  0.670- 213 2.41 234 2.41 231 2.41 186 2.41 237 2.41 136 2.41  23 3.16  24 3.16
                            63 3.16  26 3.17  41 3.17  57 3.17
  20  0.131  0.463  0.500- 163 2.41 110 2.41 113 2.41 116 2.41 121 2.41 147 2.41  54 3.16  29 3.16
                            21 3.16  40 3.16  67 3.17  51 3.17
  21  0.131  0.663  0.500- 116 2.41 113 2.41 150 2.41 153 2.41 119 2.41 212 2.41  61 3.16  40 3.16
                            20 3.16  22 3.17  39 3.17  54 3.17
  22  0.931  0.663  0.500- 119 2.41 212 2.41 169 2.41 181 2.41 182 2.41 132 2.41  14 3.16  70 3.16
                            39 3.16  21 3.17  34 3.17  40 3.17
  23  0.865  0.729  0.670- 173 2.40 170 2.40 193 2.41 136 2.41 129 2.41 186 2.41  19 3.16  41 3.16
                            64 3.16  31 3.16  26 3.17  46 3.19
  24  0.064  0.528  0.670- 213 2.41 115 2.41 168 2.41 231 2.41 118 2.41 177 2.41  19 3.16  16 3.16
                            53 3.16  26 3.17  57 3.17  43 3.17
  25  0.065  0.530  0.330- 239 2.41 238 2.41 114 2.41 117 2.41 214 2.41 167 2.41  27 3.16  52 3.16
                            28 3.16  15 3.16  35 3.16  65 3.17
  26  0.864  0.528  0.671- 168 2.41 186 2.41 136 2.41 177 2.41 223 2.41 202 2.41  19 3.17  24 3.17
                            16 3.17  23 3.17  74 3.19  46 3.19
  27  0.065  0.730  0.330- 135 2.41 236 2.41 233 2.41 238 2.41 197 2.41 214 2.41  65 3.16  25 3.16
                            35 3.16  42 3.16  62 3.17  36 3.17
  28  0.065  0.330  0.330- 111 2.41 180 2.41 196 2.41 117 2.41 114 2.41 144 2.41  47 3.16  25 3.16
                            50 3.17  15 3.17  44 3.17  52 3.17
  29  0.132  0.263  0.500- 218 2.41 215 2.41 206 2.41 209 2.41 163 2.41 110 2.41  20 3.16  17 3.16
                            51 3.16  45 3.16  67 3.17  55 3.17
  30  0.865  0.930  0.330-  90 2.41  92 2.41 199 2.41 226 2.41 200 2.41 192 2.41  56 3.16  44 3.16
                            50 3.16  36 3.16  59 3.17  42 3.17
  31  0.865  0.929  0.670- 184 2.41 198 2.41 193 2.41 129 2.41 185 2.41 183 2.41  64 3.15  49 3.16
                            32 3.16  41 3.16  58 3.16  23 3.16
  32  0.065  0.128  0.670- 198 2.40 217 2.41 109 2.41 185 2.41 112 2.41 164 2.41  18 3.16  31 3.16
                            41 3.16  43 3.16  49 3.17  48 3.17
  33  0.532  0.263  0.500- 146 2.41 107 2.41 131 2.41 141 2.41 126 2.41 143 2.41  79 3.16  70 3.16
                            55 3.16  38 3.17  71 3.17  68 3.17
  34  0.931  0.863  0.500- 132 2.41 232 2.41 194 2.41 201 2.41 182 2.41 235 2.41  60 3.16  17 3.16
                            39 3.17  14 3.17  22 3.17  45 3.17
  35  0.865  0.530  0.330- 220 2.41 239 2.41 135 2.41 224 2.41 197 2.41 167 2.41  27 3.16  15 3.16
                            25 3.16  75 3.16  36 3.17  69 3.17
  36  0.865  0.730  0.330-  92 2.41 135 2.41 171 2.41 174 2.41 197 2.41 192 2.41  42 3.16  69 3.16
                            30 3.16  35 3.17  56 3.17  27 3.17
  37  0.265  0.130  0.330- 204 2.41 165 2.41 210 2.41 221 2.41 216 2.41 207 2.41  44 3.16  86 3.16
                            62 3.16  47 3.16  42 3.17  88 3.17
  38  0.331  0.063  0.500- 146 2.41 159 2.41 219 2.41 156 2.41 222 2.41 143 2.41  61 3.16  39 3.16
                            45 3.16  55 3.16  68 3.17  33 3.17
  39  0.131  0.863  0.500- 156 2.41 212 2.41 235 2.41 159 2.41 232 2.41 119 2.41  38 3.16  22 3.16
                            61 3.17  34 3.17  45 3.17  21 3.17
  40  0.931  0.463  0.500- 169 2.41 179 2.41 113 2.41 116 2.41 181 2.41 137 2.41  21 3.16  79 3.16
                            67 3.16  20 3.16  70 3.17  22 3.17
  41  0.065  0.928  0.670- 193 2.40 234 2.41 164 2.41 217 2.41 129 2.41 237 2.41  23 3.16  18 3.16
                            31 3.16  63 3.16  32 3.16  19 3.17
  42  0.065  0.930  0.330- 165 2.41  92 2.41 216 2.41 192 2.41 233 2.41 236 2.41  36 3.16  62 3.16
                            27 3.16  44 3.17  37 3.17  30 3.17
  43  0.065  0.328  0.670- 118 2.41 176 2.41 112 2.41 178 2.41 115 2.41 109 2.41  49 3.16  32 3.16
                            53 3.17  16 3.17  24 3.17  48 3.18
  44  0.065  0.130  0.330- 165 2.41 111 2.41  90 2.41 144 2.41 216 2.41 226 2.41  37 3.16  30 3.16
                            50 3.16  42 3.17  28 3.17  47 3.17
  45  0.132  0.063  0.500- 232 2.41 218 2.41 222 2.41 235 2.41 219 2.41 215 2.41  55 3.16  29 3.16
                            17 3.16  38 3.16  39 3.17  34 3.17
  46  0.663  0.528  0.673-  10 1.92 223 2.40 173 2.40  95 2.40 170 2.42 202 2.43 130 2.77  73 3.12
                            64 3.17  23 3.19  26 3.19  66 3.20  74 3.22
  47  0.265  0.330  0.330- 111 2.41 210 2.41 207 2.41 148 2.41 144 2.41 122 2.41  28 3.16  52 3.16
                            88 3.16  72 3.16  37 3.16  44 3.17
  48  0.266  0.328  0.671- 208 2.40 149 2.40 109 2.41 123 2.41 112 2.41 120 2.43  18 3.16  32 3.17
[...]
  297        forhar                                0.628906                            2   3
  298          m_sumb_d                              0.012844                          2   4
  299        strehar                               0.008985                            1   3
  300          m_sumb_d                              0.001208                          1   4
  301        chggra                                0.024025                            1   3
  302          fft3d_mpi                             0.018316                          3   4
  303            fftbrc_mpi                            0.017643                        3   5
  304              fftbas_plan_mpi                       0.017631                      3   6
  305                dfftw_execute                         0.003323                    9   7
  306                map_backward                          0.003461                    2   7
  307                  map_gather                            0.000320                  1   8
  308                  m_alltoallv_z                         0.002840                  1   8
  309                  map_scatter                           0.000278                  1   8
  310                map_forward                           0.008841                    4   7
  311                  map_gather                            0.000399                  2   8
  312                  m_alltoallv_z                         0.007392                  2   8
  313                  map_scatter                           0.001011                  2   8
  314          m_sumb_d                              0.000274                          2   4
  315          pothar                                0.001146                          1   4
  316            m_sumb_d                              0.000541                        1   5
  317        brmix                                 0.208849                            1   3
  318          m_sumb_d                              0.001058                          6   4
  319          brpre                                 0.000178                          2   4
  320          setg0                                 0.002530                          1   4
  321          broyd                                 0.028029                          1   4
  322            m_sumb_d                              0.004262                       50   5
  323            brget                                 0.004725                      267   5
  324            brsav                                 0.001042                       48   5
  325          m_bcast_z                             0.173243                          1   4
  326        m_bcast_d                             0.001135                            2   3
  327      potlok                                3.121329                              1   2
  328        fft3d_mpi                             0.511285                           86   3
  329          fftbrc_mpi                            0.489420                         86   4
  330            fftbas_plan_mpi                       0.489162                       86   5
  331              dfftw_execute                         0.088084                    258   6
  332              map_forward                           0.179575                     88   6
  333                map_gather                            0.008837                   46   7
  334                m_alltoallv_z                         0.150427                   46   7
  335                map_scatter                           0.019411                   46   7
  336              map_backward                          0.165179                     84   6
  337                map_gather                            0.013980                   42   7
  338                m_alltoallv_z                         0.137755                   42   7
  339                map_scatter                           0.012674                   42   7
  340        m_sumb_d                              0.002507                            8   3
  341        fewald                                0.001625                            2   3
  342          rsp                                   0.001515                          2   4
  343          rcp                                   0.000093                          2   4
  344        pothar                                0.001212                            1   3
  345          m_sumb_d                              0.000598                          1   4
  346        m_bcast_d                             0.006630                            2   3
  347      potlok_metagga                        0.000001                              1   2
  348      set_dd_magatom                        0.000000                              1   2
  349      set_dd_paw                            2.899958                              1   2
  350        set_rsgf_all                          0.000002                            1   3
  351        m_sumb_d                              2.899634                            8   3
  352      densta                                0.005141                              1   2
  353        m_sumb_d                              0.003796                           10   3

 Flat profile

 eddav                                3561.200137         108
 ggemm                                1238.239491      151324
 orth1                                1172.081621      347864
 dfftw_execute                         772.268343     1057083
 m_sumb_d                              710.660266      829287
 m_alltoall_d                          708.091185      848364
 total_time                            511.289051           1
 potlok                                272.371348         105
 lapack                                231.792907      115900
 lincom                                222.385048         436
 m_alltoallv_z                         214.655596      352779
 fftbas_plan_mpi                       198.147745      352361
 racc0                                 172.332476      115900
 map_scatter                           166.554796      352779
 map_gather                            165.011663      352779
 fftwav_mpi                            130.253888      226929
 rpro1                                 123.820517       80476
 crrexp_mul_work_add                   108.475181    27468300
 m_bcast_z                             103.387559      130055
 map_forward                            84.826603      463184
 vhamil                                 74.271996      115900
 crrexp_mul_wave                        57.068487    20083380
 redis_pw                               27.192319      313148
 w1_copy                                23.626168      347700
 m_bcast_d                              22.647894      232016
 eccp                                   21.327858       35424
 fftext_mpi                             19.840398      115900
 pw_charge                              15.009138       26289
 kinhamil                                9.617786      115900
 apply_precond                           7.077949       80476
 redis_proj                              6.647700      393628
 overl                                   6.607527      196380
 setup_precond                           6.139503       35424
 augmentation_charge                     5.087251         104
 setdij_                                 4.998383         132
 phaser                                  4.759425         458
 overl1                                  4.105426      115900
 fft3d_mpi                               3.950617      352361
 rpromu_gemm                             2.722796      258804
 force_and_stress                        2.621727           1
 map_backward                            2.585631      241538
 rpromu                                  1.942110        1092
 hamiltmu                                1.903152      115900
 newband                                 1.549632      116332
 broyd                                   1.366743         104
 choleski                                1.148971           4
 fftbas_mpi                              1.089860      342829
 raccmu_                                 1.087989      115900
 elmin                                   0.732008           1
 soft_charge                             0.624918         104
 forhar                                  0.616062           2
 brmix                                   0.598999         104
 rspher_all                              0.478013          14
 w1_projall                              0.454554       80476
 depsum                                  0.437628         104
 brget                                   0.380140       22569
 densta                                  0.338161         109
 forloc                                  0.301464           1
 setg0                                   0.266799         106
 stufak                                  0.194155           1
 truncate_high_frequency_w1              0.171858      151324
 rsp                                     0.167727         211
 brsav                                   0.114371        5410
 pothar                                  0.073117         106
 inisym                                  0.058568           1
 strnlr                                  0.057086           1
 set_charge                              0.055847         104
 set_dd_paw                              0.052220         106
 fft_gq                                  0.042672         104
 orthch                                  0.039011           1
 rpro_isp                                0.035120          26
 strkin                                  0.032546           1
 fftbrc_mpi                              0.030091        9532
 fornlr                                  0.028901           1
 brpre                                   0.019833         208
 rcp                                     0.010954         211
 fewald                                  0.009103         211
 strelo                                  0.007925           1
 strehar                                 0.007777           1
 chggra                                  0.004289           1
 brgrid                                  0.000776           1
 fordep                                  0.000395           1
 crpa_reader                             0.000239           1
 set_rsgf_all                            0.000234         106
 vectorpot                               0.000160         105
 potlok_metagga                          0.000150         105
 set_dd_magatom                          0.000147         106
 posmap                                  0.000114           2
 proall                                  0.000079           1
 rotate_active_occupied_orbital          0.000014           1
 redis_pw_over_bands                     0.000001           1
  summed up times    11212.2840878963

 Accumulative profile

 total_time                          11212.284088           1
 elmin                               10576.059458           1
 eddav                                9766.764663         108
 fft3d_mpi                            1609.120944      352361
 fftbas_plan_mpi                      1604.050377      352361
 fftbas_mpi                           1539.861683      342829
 ggemm                                1238.239491      151324
 fftwav_mpi                           1176.052728      226929
 orth1                                1172.081621      347864
 hamiltmu                              910.307424      115900
 dfftw_execute                         772.268343     1057083
 m_sumb_d                              710.660266      829287
 m_alltoall_d                          708.091185      848364
 kinhamil                              525.041363      115900
 redis_pw                              519.355890      313148
 fftext_mpi                            515.423577      115900
 map_forward                           434.054051      463184
 potlok                                337.701775         105
 raccmu_                               309.090914      115900
 set_dd_paw                            308.033763         106
 racc0                                 303.897498      115900
 newband                               288.019114      116332
 lapack                                231.792907      115900
 redis_proj                            222.575314      393628
 lincom                                222.385048         436
 m_alltoallv_z                         214.655596      352779
 map_backward                          199.580238      241538
 w1_projall                            194.371028       80476
 rpro1                                 193.916474       80476
 map_scatter                           166.554796      352779
 map_gather                            165.011663      352779
 set_charge                            162.087563         104
 soft_charge                           153.483466         104
 crrexp_mul_work_add                   108.475181    27468300
 m_bcast_z                             103.387559      130055
 vhamil                                 74.271996      115900
 fftbrc_mpi                             65.308644        9532
 crrexp_mul_wave                        57.068487    20083380
 force_and_stress                       38.486255           1
 rpro_isp                               29.889998          26
 w1_copy                                23.626168      347700
 eccp                                   23.454321       35424
 m_bcast_d                              22.647894      232016
 strnlr                                 21.265294           1
 pw_charge                              15.009138       26289
 rpromu                                  7.936244        1092
 augmentation_charge                     7.696867         104
 setup_precond                           7.313175       35424
 fornlr                                  7.102341           1
 apply_precond                           7.077949       80476
 setdij_                                 6.675494         132
 overl                                   6.607527      196380
 orthch                                  5.153370           1
 brmix                                   4.774706         104
 phaser                                  4.759425         458
 overl1                                  4.105426      115900
 rpromu_gemm                             2.722796      258804
 proall                                  2.437362           1
 broyd                                   2.326842         104
 choleski                                1.148971           4
 fft_gq                                  0.975818         104
 densta                                  0.944596         109
 depsum                                  0.851381         104
 forhar                                  0.628906           2
 rspher_all                              0.478013          14
 brget                                   0.380140       22569
 forloc                                  0.309343           1
 fordep                                  0.301209           1
 setg0                                   0.266799         106
 fewald                                  0.248052         211
 stufak                                  0.194155           1
 truncate_high_frequency_w1              0.171858      151324
 rsp                                     0.167727         211
 pothar                                  0.131157         106
 brsav                                   0.114371        5410
 inisym                                  0.058682           1
 strkin                                  0.033209           1
 chggra                                  0.024025           1
 brpre                                   0.019833         208
 rcp                                     0.010954         211
 strehar                                 0.008985           1
 strelo                                  0.008462           1
 brgrid                                  0.000776           1
 crpa_reader                             0.000239           1
 set_rsgf_all                            0.000234         106
 vectorpot                               0.000160         105
 potlok_metagga                          0.000150         105
 set_dd_magatom                          0.000147         106
 posmap                                  0.000114           2
 rotate_active_occupied_orbital          0.000014           1
 redis_pw_over_bands                     0.000001           1

Profiling took  30.597118 17.789698  0.009120  0.008150 seconds
Profiling took  30.760791 seconds