 vasp.6.3.2 27Jun22 (build Jan 03 2024 23:05:41) complex

 executed on           IFC15_impi date 2024.07.06  23:44:11

 INCAR:
   ENCUT = 600.00
   EDIFF = 1.00e-06
   EDIFFG = -0.05
   ALGO = Normal
   ISMEAR = 0
   SIGMA = 0.05
   LCHARG = .FALSE.
   LWAVE = .FALSE.
   LREAL = Auto
   NELM = 2000
   NSW = 5000
   NCORE = 16
   KPAR = 8
   ISPIN = 2
   GGA = MK
   PARAM1 = 0.1234
   PARAM2 = 1.0
   AGGAC = 0.0
   LUSE_VDW = .TRUE.
   LASPH = .TRUE.
   LDIPOL = .TRUE.
   DIPOL = 0.5 0.5 0.5
   IDIPOL = 3
   IBRION = 44
   POTIM = 0.015

 POTCAR:    PAW_PBE Mo_sv 02Feb2006
 POTCAR:    PAW_PBE S 06Sep2000
 POTCAR:    PAW_PBE C 08Apr2002
 POTCAR:    PAW_PBE F 08Apr2002
 POTCAR:    PAW_PBE H 15Jun2001
|           W    W    AA    RRRRR   N    N  II  N    N   GGGG   !!!           |
|           W    W   A  A   R    R  NN   N  II  NN   N  G    G  !!!           |
|           W    W  A    A  R    R  N N  N  II  N N  N  G       !!!           |
|           W WW W  AAAAAA  RRRRR   N  N N  II  N  N N  G  GGG   !            |
|           WW  WW  A    A  R   R   N   NN  II  N   NN  G    G                |
|           W    W  A    A  R    R  N    N  II  N    N   GGGG   !!!           |
|     You use a magnetic or noncollinear calculation, but did not specify     |
|     the initial magnetic moment with the MAGMOM tag. Note that a            |
|     default of 1 will be used for all atoms. This ferromagnetic setup       |
|     may break the symmetry of the crystal, in particular it may rule        |
|     out finding an antiferromagnetic solution. Thence, we recommend         |
|     setting the initial magnetic moment manually or verifying carefully     |
|     that this magnetic setup is desired.                                    |

   TITEL  = PAW_PBE Mo_sv 02Feb2006
   POMASS =   95.940; ZVAL   =   14.000    mass and valenz
   ENMAX  =  242.676; ENMIN  =  182.007 eV

   TITEL  = PAW_PBE S 06Sep2000
   POMASS =   32.066; ZVAL   =    6.000    mass and valenz
   ENMAX  =  258.689; ENMIN  =  194.016 eV

   TITEL  = PAW_PBE C 08Apr2002
   POMASS =   12.011; ZVAL   =    4.000    mass and valenz
   ENMAX  =  400.000; ENMIN  =  300.000 eV

   TITEL  = PAW_PBE F 08Apr2002
   POMASS =   18.998; ZVAL   =    7.000    mass and valenz
   ENMAX  =  400.000; ENMIN  =  300.000 eV

   TITEL  = PAW_PBE H 15Jun2001
   POMASS =    1.000; ZVAL   =    1.000    mass and valenz
   ENMAX  =  250.000; ENMIN  =  200.000 eV

 Optimization of the real space projectors (new method)

 maximal supplied QI-value         = 15.12
 optimisation between [QCUT,QGAM] = [ 12.55, 25.10] = [ 44.09,176.36] Ry
 Optimized for a Real-space Cutoff    1.47 Angstroem

   l    n(q)    QCUT    max X(q) W(low)/X(q) W(high)/X(q)  e(spline)
   0     11    12.548     3.559    0.18E-04    0.60E-05    0.19E-06
   0     11    12.548    20.730    0.37E-04    0.13E-04    0.98E-07
   1     11    12.548     3.279    0.80E-06    0.70E-06    0.27E-07
   1     11    12.548     4.693    0.72E-04    0.11E-03    0.38E-06
   2     10    12.548    67.616    0.34E-03    0.45E-03    0.54E-06
   2     10    12.548    62.420    0.34E-03    0.45E-03    0.54E-06
 Optimization of the real space projectors (new method)

[...]

   l    n(q)    QCUT    max X(q) W(low)/X(q) W(high)/X(q)  e(spline)
   0      8    12.378    14.049    0.35E-03    0.80E-04    0.14E-06
   0      8    12.378     8.945    0.50E-03    0.13E-03    0.19E-06
   1      7    12.378     7.086    0.49E-03    0.21E-03    0.21E-06
   1      7    12.378     6.747    0.44E-03    0.20E-03    0.19E-06
 Optimization of the real space projectors (new method)

 maximal supplied QI-value         = 34.20
 optimisation between [QCUT,QGAM] = [ 12.31, 24.97] = [ 42.46,174.58] Ry
 Optimized for a Real-space Cutoff    1.00 Angstroem

   l    n(q)    QCUT    max X(q) W(low)/X(q) W(high)/X(q)  e(spline)
   0      7    12.313    19.460    0.14E-03    0.42E-03    0.16E-06
   0      7    12.313    12.209    0.12E-03    0.40E-03    0.16E-06
   1      7    12.313     4.655    0.33E-03    0.59E-03    0.89E-07
|               ----> ADVICE to this user running VASP <----                  |
|     You enforced a specific xc type in the INCAR file but a different       |
|     type was found in the POTCAR file.                                      |
|     I HOPE YOU KNOW WHAT YOU ARE DOING!                                     |

  PAW_PBE Mo_sv 02Feb2006               :
  PAW_PBE S 06Sep2000                   :
  PAW_PBE C 08Apr2002                   :
  PAW_PBE F 08Apr2002                   :
  PAW_PBE H 15Jun2001                   :

 POSCAR: Mo S  C  F  H
  positions in direct lattice
  velocities in cartesian coordinates
 exchange correlation table for  LEXCH =       43
   RHO(1)=    0.500       N(1)  =     2000
   RHO(2)=  100.500       N(2)  =     4000

 VTST: version 4.1, (05/19/21)

 CHAIN: initializing optimizer

 OPT: Using VASP Dynamics algorithm
 CHAIN: Read ICHAIN            0

 POSCAR: Mo S  C  F  H
  positions in direct lattice
  velocities in cartesian coordinates

 ion  position               nearest neighbor table
   1  0.933  0.665  0.500- 183 2.41  88 2.41 214 2.41 158 2.41 184 2.41 176 2.41  59 3.16   6 3.16
                            20 3.16  21 3.16  27 3.16  26 3.16
   2  0.865  0.531  0.671- 161 2.41 215 2.41 182 2.41 172 2.41 210 2.41 218 2.42   8 3.16  11 3.17
                             4 3.17   5 3.17  56 3.17  62 3.17
   3  0.066  0.533  0.330- 209 2.41 193 2.41  99 2.41 111 2.41 160 2.41 105 2.41  39 3.16   7 3.16
                            30 3.16  52 3.16  13 3.17  22 3.17
   4  0.066  0.531  0.670- 143 2.41 161 2.41 106 2.41 204 2.41 210 2.41  90 2.41  44 3.16   8 3.16
                            14 3.16  11 3.16   2 3.17  40 3.17
   5  0.867  0.732  0.670- 207 2.40 112 2.40 185 2.41 148 2.41 172 2.41 182 2.41  28 3.14   8 3.15
                            18 3.17   2 3.17  46 3.18  56 3.18
   6  0.133  0.665  0.500- 141 2.41  92 2.41 104 2.41  88 2.41 125 2.41 184 2.41  12 3.16   1 3.16
                            27 3.16  26 3.16  48 3.17  41 3.17
   7  0.866  0.333  0.330- 174 2.41 213 2.41 209 2.41 168 2.41 160 2.41 151 2.41   3 3.16  30 3.16
                            37 3.16  63 3.16  22 3.17  73 3.17
   8  0.065  0.731  0.670- 188 2.41 182 2.41 143 2.41 172 2.41 204 2.41 191 2.41   5 3.15  50 3.16
                            44 3.16   4 3.16   2 3.16  28 3.17
   9  0.264  0.130  0.668- 200 2.39  98 2.40  95 2.40 145 2.41 197 2.41  77 2.42  33 3.13  28 3.14
                            19 3.15  50 3.16  35 3.17  75 3.19
  10  0.933  0.065  0.500-  93 2.41 170 2.41 220 2.41  96 2.41 149 2.41 179 2.41  32 3.16  57 3.16
                            21 3.17  53 3.17  47 3.17  16 3.17
  11  0.866  0.331  0.670- 210 2.41 175 2.41 211 2.41 178 2.41 161 2.41 169 2.41  36 3.16  14 3.16
                             4 3.16   2 3.17  72 3.17  62 3.17
  12  0.133  0.466  0.500- 104 2.41 101 2.41 100 2.41 138 2.41  92 2.41  78 2.41   6 3.16  41 3.16
                            16 3.16  38 3.16  27 3.17  53 3.17
  13  0.066  0.733  0.330- 173 2.41 193 2.41 190 2.41 152 2.41 111 2.41 187 2.41  52 3.16  49 3.16
                            22 3.16  23 3.17  29 3.17   3 3.17
  14  0.066  0.331  0.670-  90 2.40 103 2.41 178 2.41 211 2.41 107 2.41 106 2.41  36 3.16   4 3.16
                            11 3.16  40 3.17  19 3.17  35 3.17
  15  0.066  0.133  0.330- 102 2.41 180 2.41  97 2.41  91 2.41  94 2.41 221 2.41  29 3.16  24 3.16
                            34 3.16  17 3.16  30 3.16  37 3.17
  16  0.133  0.266  0.500- 101 2.41  93 2.41 201 2.41 100 2.41  96 2.41 198 2.41  53 3.16  12 3.16
                            42 3.16  32 3.17  38 3.17  10 3.17
  17  0.866  0.933  0.330-  85 2.41 180 2.41 162 2.41 221 2.41 147 2.41 156 2.41  54 3.16  37 3.16
                            23 3.16  43 3.16  15 3.16  29 3.17
  18  0.866  0.932  0.670- 154 2.40 155 2.41 157 2.41 148 2.41 181 2.41 112 2.41  46 3.15  19 3.16
                            36 3.16  28 3.16  45 3.16   5 3.17
  19  0.065  0.131  0.669-  95 2.41 154 2.41 181 2.41 107 2.41 103 2.41  98 2.41   9 3.15  18 3.16
                            36 3.16  28 3.16  14 3.17  35 3.17
  20  0.733  0.665  0.500- 214 2.41 217 2.41 186 2.41 144 2.41 176 2.41 222 2.41  64 3.16  59 3.16
                            65 3.16   1 3.16  21 3.16  47 3.16
  21  0.933  0.865  0.500- 194 2.41 176 2.41 149 2.41 179 2.41 189 2.41 214 2.41  47 3.16   1 3.16
                            20 3.16  26 3.16  10 3.17  32 3.17
  22  0.866  0.533  0.330- 209 2.41 216 2.41 173 2.41 152 2.41 160 2.41 219 2.41  23 3.16  58 3.16
                            63 3.16  13 3.16   3 3.17   7 3.17
  23  0.866  0.733  0.330-  85 2.41 224 2.41 173 2.41 147 2.41 208 2.41 152 2.41  22 3.16  58 3.16
                            29 3.16  17 3.16  13 3.17  43 3.17
  24  0.266  0.133  0.330- 196 2.41  94 2.41  97 2.41 202 2.41 199 2.41 195 2.41  51 3.16  34 3.16
                            49 3.16  15 3.16  71 3.17  29 3.17
  25  0.333  0.065  0.500- 117 2.41 120 2.41 192 2.41 203 2.41 114 2.41 123 2.41  48 3.16  26 3.16
                            32 3.17  55 3.17  31 3.17  42 3.17
  26  0.133  0.865  0.500- 184 2.41 194 2.41  88 2.41 189 2.41 120 2.41 123 2.41  25 3.16   6 3.16
                            48 3.16   1 3.16  21 3.16  32 3.17
  27  0.933  0.465  0.500- 183 2.41 104 2.41 212 2.41 158 2.41 171 2.41  92 2.41  53 3.16   6 3.16
                            67 3.16   1 3.16  59 3.16  12 3.17
  28  0.065  0.931  0.669- 148 2.40  95 2.41  98 2.41 188 2.41 112 2.41 191 2.41   9 3.14   5 3.14
                            18 3.16  19 3.16  50 3.17   8 3.17
  29  0.066  0.933  0.330-  85 2.41  97 2.41 187 2.41 190 2.41  94 2.41 147 2.41  15 3.16  49 3.16
                            23 3.16  13 3.17  24 3.17  17 3.17
  30  0.066  0.333  0.330-  99 2.41 102 2.41 213 2.41 105 2.41  91 2.41 151 2.41  37 3.16   7 3.16
                             3 3.16  34 3.16  39 3.16  15 3.16
  31  0.533  0.265  0.500- 117 2.41 177 2.41 136 2.41  89 2.41 114 2.41 167 2.41  55 3.16  59 3.16
                            65 3.16  67 3.17  42 3.17  25 3.17
  32  0.133  0.066  0.500-  96 2.41 192 2.41  93 2.41 189 2.41 203 2.41 194 2.41  10 3.16  26 3.17
                            25 3.17  16 3.17  21 3.17  42 3.17
  33  0.463  0.326  0.668- 237 1.95  76 2.36  81 2.42 200 2.43  77 2.44  84 2.44 225 2.90   9 3.13
                            75 3.13  62 3.16  35 3.16  56 3.24  61 3.24
  34  0.266  0.333  0.330- 102 2.41 139 2.41 202 2.41 199 2.41  79 2.41  91 2.41  60 3.16  24 3.16
                            39 3.16  30 3.16  15 3.16  51 3.17
  35  0.266  0.331  0.670- 200 2.39 140 2.40 107 2.41 103 2.41  80 2.42  77 2.42  33 3.16   9 3.17
                            19 3.17  40 3.17  14 3.17  61 3.18
  36  0.866  0.131  0.670- 154 2.41 153 2.41 178 2.41 181 2.41 211 2.41 165 2.41  18 3.16  11 3.16
                            45 3.16  14 3.16  72 3.16  19 3.16
  37  0.866  0.133  0.330- 164 2.41 180 2.41 213 2.41 221 2.41 146 2.41 151 2.41  30 3.16   7 3.16
                            73 3.16  17 3.16  15 3.17  54 3.17
  38  0.333  0.466  0.500- 198 2.41 201 2.41  82 2.41  86 2.41 138 2.41  78 2.41  64 3.16  41 3.16
[...]
  299          m_sumb_d                              0.016152                          2   4
  300        strehar                               0.010990                            1   3
  301          m_sumb_d                              0.000741                          1   4
  302        chggra                                0.023357                            1   3
  303          fft3d_mpi                             0.017086                          3   4
  304            fftbrc_mpi                            0.016345                        3   5
  305              fftbas_plan_mpi                       0.016336                      3   6
  306                dfftw_execute                         0.003445                    9   7
  307                map_backward                          0.003914                    2   7
  308                  map_gather                            0.000197                  1   8
  309                  m_alltoallv_z                         0.003223                  1   8
  310                  map_scatter                           0.000471                  1   8
  311                map_forward                           0.007193                    4   7
  312                  map_gather                            0.000585                  2   8
  313                  m_alltoallv_z                         0.005954                  2   8
  314                  map_scatter                           0.000616                  2   8
  315          m_sumb_d                              0.000127                          2   4
  316          pothar                                0.001220                          1   4
  317            m_sumb_d                              0.000320                        1   5
  318        brmix                                 0.194099                            1   3
  319          m_sumb_d                              0.001544                          6   4
  320          brpre                                 0.000383                          2   4
  321          setg0                                 0.003302                          1   4
  322          broyd                                 0.099658                          1   4
  323            m_sumb_d                              0.005404                       50   5
  324            brget                                 0.020622                      396   5
  325            brsav                                 0.004513                       48   5
  326          m_bcast_z                             0.083585                          1   4
  327          m_bcast_d                             0.000268                          1   4
  328        m_bcast_d                             0.001514                            2   3
  329      potlok                                3.692357                              1   2
  330        fft3d_mpi                             0.583340                           86   3
  331          fftbrc_mpi                            0.561177                         86   4
  332            fftbas_plan_mpi                       0.560693                       86   5
  333              dfftw_execute                         0.095890                    258   6
  334              map_forward                           0.245909                     88   6
  335                map_gather                            0.012188                   46   7
  336                m_alltoallv_z                         0.217540                   46   7
  337                map_scatter                           0.015354                   46   7
  338              map_backward                          0.163511                     84   6
  339                map_gather                            0.009332                   42   7
  340                m_alltoallv_z                         0.136350                   42   7
  341                map_scatter                           0.017080                   42   7
  342        m_sumb_d                              0.007858                            8   3
  343        fewald                                0.001671                            2   3
  344          rsp                                   0.001552                          2   4
  345          rcp                                   0.000103                          2   4
  346        pothar                                0.001304                            1   3
  347          m_sumb_d                              0.000379                          1   4
  348        m_bcast_d                             0.005367                            2   3
  349      potlok_metagga                        0.000001                              1   2
  350      set_dd_magatom                        0.000001                              1   2
  351      set_dd_paw                            2.899162                              1   2
  352        set_rsgf_all                          0.000001                            1   3
  353        m_sumb_d                              2.898937                            8   3
  354      densta                                0.003359                              1   2
  355        m_sumb_d                              0.002459                           10   3

 Flat profile

 ggemm                                1052.537457       42420
 eddav                                1050.881257          48
 total_time                            507.211082           1
 orth1                                 353.347959       95404
 m_sumb_d                              238.640097      231431
 m_alltoallv_z                         227.411145       99224
 dfftw_execute                         214.689177      297138
 potlok                                139.143915          45
 m_alltoall_d                          134.449875      234114
 m_bcast_z                              77.206877       46289
 lincom                                 66.579431          98
 fftbas_plan_mpi                        54.960890       99046
 racc0                                  49.012975       31764
 map_scatter                            47.156507       99224
 map_gather                             43.768663       99224
 lapack                                 36.369426       31764
 fftwav_mpi                             35.040752       63150
 rpro1                                  32.721403       21108
 crrexp_mul_work_add                    30.064411     7528068
 map_forward                            22.653457      130346
 vhamil                                 20.148088       31764
 crrexp_mul_wave                        15.881577     5686578
 redis_pw                                7.215569       84832
 w1_copy                                 6.878479       95292
 eccp                                    6.404887       10656
 fftext_mpi                              5.479854       31764
 m_bcast_d                               4.656417       63668
 pw_charge                               4.192523        7392
 force_and_stress                        3.125990           1
 setdij_                                 2.722225          72
 kinhamil                                2.622906       31764
 augmentation_charge                     2.304496          44
 apply_precond                           1.920819       21108
 setup_precond                           1.871118       10656
 rpromu_gemm                             1.849935      172536
 overl                                   1.674860       52874
 redis_proj                              1.653848      105942
 fft3d_mpi                               1.452288       99046
 rpromu                                  1.309138         728
 overl1                                  1.193749       31764
 broyd                                   1.097638          44
 phaser                                  1.059318         109
 forhar                                  0.831681           2
 map_backward                            0.674905       67746
 choleski                                0.606795           2
 hamiltmu                                0.522281       31764
 rspher_all                              0.485857          14
 elmin                                   0.460093           1
 newband                                 0.441691       31860
 forloc                                  0.412434           1
 brget                                   0.384290        7644
 raccmu_                                 0.316696       31764
 fftbas_mpi                              0.303429       94914
 brmix                                   0.289131          44
 stufak                                  0.261000           1
 soft_charge                             0.222821          44
 setg0                                   0.147999          46
 depsum                                  0.127845          44
 w1_projall                              0.116581       21108
 brsav                                   0.115224        1174
 rsp                                     0.075643          91
 inisym                                  0.064705           1
 densta                                  0.064075          49
 pothar                                  0.042864          46
 truncate_high_frequency_w1              0.039797       42420
 set_charge                              0.039016          44
 strnlr                                  0.038830           1
 orthch                                  0.037789           1
 rpro_isp                                0.025871          13
 set_dd_paw                              0.023728          46
 strkin                                  0.022348           1
 brpre                                   0.018170          88
 fft_gq                                  0.017668          44
 fftbrc_mpi                              0.013509        4132
 fornlr                                  0.012781           1
 strehar                                 0.010249           1
 strelo                                  0.010184           1
 fewald                                  0.008449          91
 rcp                                     0.005143          91
 chggra                                  0.004924           1
 brgrid                                  0.000977           1
 fordep                                  0.000293           1
 crpa_reader                             0.000244           1
 proall                                  0.000209           1
 vectorpot                               0.000169          45
 posmap                                  0.000113           2
 set_rsgf_all                            0.000109          46
 set_dd_magatom                          0.000075          46
 potlok_metagga                          0.000072          45
 rotate_active_occupied_orbital          0.000014           1
 redis_pw_over_bands                     0.000001           1
  summed up times    4517.86125183105

 Accumulative profile

 total_time                           4517.861252           1
 elmin                                3895.725556           1
 eddav                                3547.129303          48
 ggemm                                1052.537457       42420
 fft3d_mpi                             613.083970       99046
 fftbas_plan_mpi                       611.314743       99046
 fftbas_mpi                            583.963897       94914
 fftwav_mpi                            484.053479       63150
 orth1                                 353.347959       95404
 map_forward                           286.749949      130346
 hamiltmu                              253.789076       31764
 m_sumb_d                              238.640097      231431
 m_alltoallv_z                         227.411145       99224
 dfftw_execute                         214.689177      297138
 potlok                                166.376234          45
 kinhamil                              143.460483       31764
 fftext_mpi                            140.837577       31764
 m_alltoall_d                          134.449875      234114
 set_dd_paw                            134.371496          46
 redis_pw                               98.668965       84832
 raccmu_                                89.658223       31764
 racc0                                  88.147778       31764
 newband                                81.667192       31860
 m_bcast_z                              77.206877       46289
 lincom                                 66.579431          98
 map_backward                           54.914728       67746
 w1_projall                             51.011403       21108
 rpro1                                  50.894822       21108
 set_charge                             49.204295          44
 map_scatter                            47.156507       99224
 soft_charge                            45.361001          44
 redis_proj                             44.650326      105942
 map_gather                             43.768663       99224
 lapack                                 36.369426       31764
 crrexp_mul_work_add                    30.064411     7528068
 force_and_stress                       29.810995           1
 fftbrc_mpi                             27.667784        4132
 rpro_isp                               20.261002          13
 vhamil                                 20.148088       31764
 crrexp_mul_wave                        15.881577     5686578
 strnlr                                 14.456178           1
 eccp                                    8.000603       10656
 w1_copy                                 6.878479       95292
 rpromu                                  5.453899         728
 fornlr                                  4.830238           1
 m_bcast_d                               4.656417       63668
 pw_charge                               4.192523        7392
 setdij_                                 3.604865          72
 augmentation_charge                     3.539612          44
 orthch                                  3.254183           1
 brmix                                   2.838098          44
 setup_precond                           2.125314       10656
 apply_precond                           1.920819       21108
 rpromu_gemm                             1.849935      172536
 broyd                                   1.756519          44
 densta                                  1.755601          49
 overl                                   1.674860       52874
 proall                                  1.610640           1
 overl1                                  1.193749       31764
 phaser                                  1.059318         109
 forhar                                  0.847833           2
 choleski                                0.606795           2
 rspher_all                              0.485857          14
 forloc                                  0.412667           1
 fft_gq                                  0.391816          44
 brget                                   0.384290        7644
 fordep                                  0.288557           1
 fewald                                  0.268579          91
 depsum                                  0.264666          44
 stufak                                  0.261000           1
 setg0                                   0.147999          46
 brsav                                   0.115224        1174
 rsp                                     0.075643          91
 inisym                                  0.064818           1
 pothar                                  0.061701          46
 truncate_high_frequency_w1              0.039797       42420
 chggra                                  0.023357           1
 strkin                                  0.023192           1
 brpre                                   0.018170          88
 strehar                                 0.010990           1
 strelo                                  0.010688           1
 rcp                                     0.005143          91
 brgrid                                  0.000977           1
 crpa_reader                             0.000244           1
 vectorpot                               0.000169          45
 posmap                                  0.000113           2
 set_rsgf_all                            0.000109          46
 set_dd_magatom                          0.000075          46
 potlok_metagga                          0.000072          45
 rotate_active_occupied_orbital          0.000014           1
 redis_pw_over_bands                     0.000001           1

Profiling took   8.535861  4.958629  0.009040  0.008005 seconds
Profiling took   8.377958 seconds