 vasp.6.3.2 27Jun22 (build Jan 03 2024 23:05:41) complex

 executed on           IFC15_impi date 2024.07.15  00:09:53

 INCAR:
   ENCUT = 600.00
   EDIFF = 1.00e-06
   EDIFFG = -0.01
   IBRION = 2
   ALGO = Normal
   ISMEAR = 0
   SIGMA = 0.05
   LCHARG = .FALSE.
   LWAVE = .FALSE.
   LREAL = Auto
   NELM = 2000
   NSW = 5000
   NCORE = 16
   NKPAR = 8
   ISPIN = 2
   GGA = MK
   PARAM1 = 0.1234
   PARAM2 = 1.0
   AGGAC = 0.0
   LUSE_VDW = .TRUE.
   LASPH = .TRUE.
   LDIPOL = .TRUE.
   DIPOL = 0.5 0.5 0.5
   IDIPOL = 3

 POTCAR:    PAW_PBE Mo_sv 02Feb2006
 POTCAR:    PAW_PBE S 06Sep2000
|           W    W    AA    RRRRR   N    N  II  N    N   GGGG   !!!           |
|           W    W   A  A   R    R  NN   N  II  NN   N  G    G  !!!           |
|           W    W  A    A  R    R  N N  N  II  N N  N  G       !!!           |
|           W WW W  AAAAAA  RRRRR   N  N N  II  N  N N  G  GGG   !            |
|           WW  WW  A    A  R   R   N   NN  II  N   NN  G    G                |
|           W    W  A    A  R    R  N    N  II  N    N   GGGG   !!!           |
|     You use a magnetic or noncollinear calculation, but did not specify     |
|     the initial magnetic moment with the MAGMOM tag. Note that a            |
|     default of 1 will be used for all atoms. This ferromagnetic setup       |
|     may break the symmetry of the crystal, in particular it may rule        |
|     out finding an antiferromagnetic solution. Thence, we recommend         |
|     setting the initial magnetic moment manually or verifying carefully     |
|     that this magnetic setup is desired.                                    |

   TITEL  = PAW_PBE Mo_sv 02Feb2006
   POMASS =   95.940; ZVAL   =   14.000    mass and valenz
   ENMAX  =  242.676; ENMIN  =  182.007 eV

   TITEL  = PAW_PBE S 06Sep2000
   POMASS =   32.066; ZVAL   =    6.000    mass and valenz
   ENMAX  =  258.689; ENMIN  =  194.016 eV

 Optimization of the real space projectors (new method)

 maximal supplied QI-value         = 15.12
 optimisation between [QCUT,QGAM] = [ 12.55, 25.10] = [ 44.09,176.36] Ry
 Optimized for a Real-space Cutoff    1.47 Angstroem

   l    n(q)    QCUT    max X(q) W(low)/X(q) W(high)/X(q)  e(spline)
   0     11    12.548     3.559    0.18E-04    0.60E-05    0.19E-06
   0     11    12.548    20.730    0.37E-04    0.13E-04    0.98E-07
   1     11    12.548     3.279    0.80E-06    0.70E-06    0.27E-07
   1     11    12.548     4.693    0.72E-04    0.11E-03    0.38E-06
   2     10    12.548    67.616    0.34E-03    0.45E-03    0.54E-06
   2     10    12.548    62.420    0.34E-03    0.45E-03    0.54E-06
 Optimization of the real space projectors (new method)

 maximal supplied QI-value         = 19.84
 optimisation between [QCUT,QGAM] = [ 12.50, 25.00] = [ 43.76,175.03] Ry
 Optimized for a Real-space Cutoff    1.06 Angstroem

   l    n(q)    QCUT    max X(q) W(low)/X(q) W(high)/X(q)  e(spline)
   0      8    12.501   187.594    0.26E-03    0.17E-03    0.97E-07
   0      8    12.501   164.243    0.26E-03    0.17E-03    0.96E-07
   1      7    12.501    67.533    0.50E-03    0.61E-03    0.91E-07
   1      7    12.501    50.729    0.48E-03    0.60E-03    0.90E-07
|               ----> ADVICE to this user running VASP <----                  |
|     You enforced a specific xc type in the INCAR file but a different       |
|     type was found in the POTCAR file.                                      |
|     I HOPE YOU KNOW WHAT YOU ARE DOING!                                     |

  PAW_PBE Mo_sv 02Feb2006               :
  PAW_PBE S 06Sep2000                   :

 POSCAR: Mo  S
  positions in direct lattice
  velocities in cartesian coordinates
 exchange correlation table for  LEXCH =       43
   RHO(1)=    0.500       N(1)  =     2000
   RHO(2)=  100.500       N(2)  =     4000

 VTST: version 4.1, (05/19/21)

 CHAIN: initializing optimizer

 OPT: Using VASP Conjugate-Gradient optimizer
 CHAIN: Read ICHAIN            0

 POSCAR: Mo  S
  positions in direct lattice
  velocities in cartesian coordinates

 ion  position               nearest neighbor table
   1  0.133  0.067  0.500- 144 2.41 141 2.41 162 2.41 138 2.41 159 2.41 147 2.41  49 3.16  62 3.16
                            71 3.16  20 3.16  67 3.16  72 3.16
   2  0.665  0.731  0.669- 193 2.39 117 2.39 196 2.41 114 2.41 108 2.41 106 2.42  37 3.14  42 3.14
                            55 3.16  32 3.16   8 3.19  64 3.19
   3  0.267  0.934  0.671- 149 2.41 140 2.41 215 2.41 218 2.41 143 2.41 155 2.41  74 3.17  28 3.17
                             9 3.17  51 3.17  50 3.17  25 3.17
   4  0.267  0.933  0.330- 148 2.41 217 2.41 142 2.41 146 2.41 214 2.41 139 2.41  10 3.16  52 3.16
                            75 3.16  29 3.16  70 3.16  24 3.16
   5  0.333  0.867  0.500- 197 2.41 216 2.41 210 2.41 136 2.41 213 2.41 207 2.41  72 3.16  53 3.16
                            71 3.16  12 3.16  30 3.16  23 3.16
   6  0.733  0.867  0.500-  76 2.41 100 2.41 119 2.41 110 2.41  89 2.41 116 2.41  34 3.16  46 3.16
                            30 3.16  67 3.16  22 3.16  49 3.16
   7  0.667  0.933  0.330-  94 2.41 201 2.41 105 2.41 198 2.41 107 2.41  97 2.41  11 3.16  29 3.16
                            33 3.16  26 3.16  16 3.16  63 3.16
   8  0.666  0.933  0.670- 134 2.41 199 2.41 106 2.41 108 2.41  96 2.41  93 2.41  28 3.16  64 3.16
                            32 3.17  17 3.17  27 3.18   2 3.19
   9  0.267  0.733  0.671- 212 2.41 157 2.41 215 2.41 137 2.41 218 2.41 209 2.41  56 3.17  28 3.17
                            51 3.17   3 3.17  32 3.17  13 3.17
  10  0.267  0.733  0.330- 211 2.41 145 2.41 217 2.41 208 2.41 214 2.41 158 2.41   4 3.16  52 3.16
                            29 3.16  57 3.16  33 3.16  14 3.16
  11  0.667  0.733  0.330- 195 2.41 115 2.41 105 2.41 107 2.41 192 2.41 118 2.41   7 3.16  63 3.16
                            38 3.16  41 3.16  33 3.16  69 3.16
  12  0.333  0.667  0.500- 210 2.41 191 2.41 179 2.41 204 2.41 194 2.41 207 2.41   5 3.16  53 3.16
                            30 3.16  59 3.16  34 3.16  15 3.16
  13  0.268  0.533  0.670- 212 2.40 209 2.41 173 2.41 176 2.41 206 2.42 181 2.43  32 3.15  18 3.16
                            60 3.17   9 3.17  56 3.18  37 3.20
  14  0.267  0.533  0.330- 211 2.41 205 2.41 175 2.41 172 2.41 180 2.41 208 2.41  33 3.16  10 3.16
                            38 3.16  57 3.16  61 3.16  19 3.16
  15  0.333  0.467  0.500- 186 2.41 153 2.41 179 2.41 204 2.41 188 2.41 150 2.41  20 3.16  62 3.16
                            39 3.16  59 3.16  34 3.16  12 3.16
  16  0.867  0.133  0.330-  90 2.41  94 2.41 124 2.41 132 2.41 102 2.41  97 2.41  26 3.16  66 3.16
                            63 3.16  47 3.16   7 3.16  61 3.16
  17  0.867  0.133  0.670- 104 2.41  96 2.41  88 2.41  91 2.41  93 2.41 122 2.41  65 3.17  60 3.17
                            27 3.17  64 3.17  48 3.17   8 3.17
  18  0.269  0.335  0.669- 152 2.39 181 2.39 178 2.41 206 2.41 170 2.41 167 2.42  43 3.14  37 3.14
                            50 3.16  13 3.16  65 3.19  60 3.19
  19  0.267  0.333  0.330- 205 2.41 154 2.41 169 2.41 166 2.41 180 2.41 151 2.41  61 3.16  66 3.16
                            38 3.16  44 3.16  14 3.16  70 3.16
  20  0.333  0.267  0.500- 202 2.41 153 2.41 144 2.41 147 2.41 183 2.41 150 2.41  15 3.16  62 3.16
                            39 3.16   1 3.16  45 3.16  71 3.16
  21  0.933  0.267  0.500-  80 2.41 123 2.41 165 2.41 131 2.41  81 2.41 168 2.41  59 3.16  73 3.16
                            62 3.16  31 3.16  49 3.17  22 3.17
  22  0.733  0.067  0.500-  80 2.41 101 2.41 110 2.41 131 2.41  95 2.41  76 2.41  23 3.16  30 3.16
                            31 3.16   6 3.16  21 3.17  49 3.17
  23  0.533  0.067  0.500- 219 2.41 136 2.41  95 2.41 197 2.41 101 2.41 222 2.41  22 3.16  31 3.16
                            71 3.16  45 3.16  30 3.16   5 3.16
  24  0.467  0.133  0.330- 148 2.41 184 2.41 203 2.41 220 2.41 200 2.41 146 2.41  70 3.16   4 3.16
                            44 3.16  29 3.16  26 3.16  35 3.16
  25  0.467  0.134  0.670- 149 2.40 155 2.41 221 2.41 223 2.41 185 2.42 182 2.43  50 3.15  36 3.16
                            27 3.17   3 3.17  28 3.18  43 3.20
  26  0.667  0.133  0.330-  94 2.41 203 2.41  84 2.41 220 2.41  78 2.41  97 2.41  35 3.16  29 3.16
                            24 3.16   7 3.16  16 3.16  47 3.16
  27  0.666  0.134  0.670- 223 2.41 221 2.41  79 2.41  85 2.41  96 2.41  93 2.41  28 3.16  48 3.16
                            25 3.17  17 3.17   8 3.18  36 3.19
  28  0.467  0.933  0.671- 215 2.41 218 2.41 134 2.41 223 2.41 199 2.41 221 2.41   8 3.16  27 3.16
                             9 3.17   3 3.17  32 3.18  25 3.18
  29  0.467  0.933  0.330- 201 2.41 203 2.41 217 2.41 214 2.41 198 2.41 220 2.41  10 3.16   4 3.16
                             7 3.16  26 3.16  33 3.16  24 3.16
  30  0.533  0.867  0.500- 191 2.41 136 2.41  76 2.41 197 2.41 110 2.41 194 2.41  22 3.16   6 3.16
                            12 3.16  34 3.16  23 3.16   5 3.16
  31  0.733  0.267  0.500-  81 2.41  95 2.41  77 2.41 123 2.41 101 2.41  87 2.41  40 3.16  45 3.16
                            23 3.16  73 3.16  22 3.16  21 3.16
  32  0.467  0.732  0.670- 212 2.40 209 2.41 199 2.41 134 2.41 196 2.42 193 2.43  13 3.15   2 3.16
                             8 3.17   9 3.17  28 3.18  37 3.20
  33  0.467  0.733  0.330- 211 2.41 195 2.41 201 2.41 198 2.41 192 2.41 208 2.41  14 3.16  10 3.16
                            38 3.16  29 3.16   7 3.16  11 3.16
  34  0.533  0.667  0.500- 186 2.41 116 2.41 191 2.41 194 2.41 188 2.41 119 2.41  46 3.16   6 3.16
                            39 3.16  30 3.16  15 3.16  12 3.16
  35  0.667  0.333  0.330- 184 2.41 127 2.41  84 2.41  78 2.41 200 2.41 130 2.41  26 3.16  47 3.16
                            44 3.16  41 3.16  24 3.16  68 3.16
  36  0.665  0.335  0.669- 129 2.39 182 2.39 185 2.41 126 2.41  85 2.41  79 2.42  43 3.14  42 3.14
                            25 3.16  58 3.16  48 3.19  27 3.19
  37  0.469  0.531  0.668- 190 2.37 196 2.39 206 2.39 181 2.40 193 2.40  42 3.06  43 3.06  18 3.14
                             2 3.14  13 3.20  32 3.20
  38  0.467  0.533  0.330- 195 2.41 205 2.41 189 2.41 135 2.41 180 2.41 192 2.41  41 3.16  44 3.16
                            11 3.16  19 3.16  14 3.16  33 3.16
  39  0.533  0.467  0.500- 186 2.41 133 2.41 202 2.41 188 2.41 183 2.41 128 2.41  15 3.16  34 3.16
                            20 3.16  46 3.16  45 3.16  40 3.16
  40  0.733  0.467  0.500- 133 2.41  87 2.41 109 2.41 113 2.41 128 2.41  77 2.41  45 3.16  31 3.16
                            39 3.16  73 3.16  46 3.16  54 3.16
  41  0.667  0.533  0.330- 127 2.41 115 2.41 189 2.41 135 2.41 130 2.41 118 2.41  38 3.16  44 3.16
                            35 3.16  11 3.16  68 3.16  69 3.16
  42  0.662  0.531  0.668- 190 2.37 126 2.39 114 2.39 129 2.40 117 2.40  37 3.06  43 3.06  36 3.14
                             2 3.14  58 3.20  55 3.20
  43  0.469  0.338  0.668- 190 2.37 185 2.39 178 2.39 182 2.40 152 2.40  37 3.06  42 3.06  36 3.14
                            18 3.14  25 3.20  50 3.20
  44  0.467  0.333  0.330- 184 2.41 154 2.41 189 2.41 135 2.41 200 2.41 151 2.41  38 3.16  41 3.16
                            35 3.16  19 3.16  24 3.16  70 3.16
[...]
  296        forhar                                0.140884                            2   3
  297          m_sumb_d                              0.003387                          2   4
  298        strehar                               0.002269                            1   3
  299          m_sumb_d                              0.000488                          1   4
  300        chggra                                0.047199                            1   3
  301          fft3d_mpi                             0.039395                          3   4
  302            fftbrc_mpi                            0.038354                        3   5
  303              fftbas_plan_mpi                       0.038343                      3   6
  304                dfftw_execute                         0.003404                    9   7
  305                map_backward                          0.007335                    2   7
  306                  map_gather                            0.000806                  1   8
  307                  m_alltoallv_z                         0.006381                  1   8
  308                  map_scatter                           0.000121                  1   8
  309                map_forward                           0.025620                    4   7
  310                  map_gather                            0.000126                  2   8
  311                  m_alltoallv_z                         0.023597                  2   8
  312                  map_scatter                           0.001859                  2   8
  313          m_sumb_d                              0.000222                          2   4
  314          pothar                                0.001513                          1   4
  315            m_sumb_d                              0.001351                        1   5
  316        brmix                                 0.014595                            1   3
  317          m_sumb_d                              0.000695                          6   4
  318          brpre                                 0.000151                          2   4
  319          setg0                                 0.000743                          1   4
  320          broyd                                 0.011282                          1   4
  321            m_sumb_d                              0.005196                       39   5
  322            brget                                 0.001762                      169   5
  323            brsav                                 0.000622                       37   5
  324        m_bcast_d                             0.001032                            2   3
  325      potlok                                2.342256                              1   2
  326        fft3d_mpi                             0.904732                           86   3
  327          fftbrc_mpi                            0.872128                         86   4
  328            fftbas_plan_mpi                       0.871857                       86   5
  329              dfftw_execute                         0.072243                    258   6
  330              map_forward                           0.471220                     88   6
  331                map_gather                            0.002255                   46   7
  332                m_alltoallv_z                         0.406659                   46   7
  333                map_scatter                           0.061356                   46   7
  334              map_backward                          0.272448                     84   6
  335                map_gather                            0.033295                   42   7
  336                m_alltoallv_z                         0.234753                   42   7
  337                map_scatter                           0.003608                   42   7
  338        m_sumb_d                              0.002837                            8   3
  339        fewald                                0.001783                            2   3
  340          rsp                                   0.001551                          2   4
  341          rcp                                   0.000207                          2   4
  342        pothar                                0.001801                            1   3
  343          m_sumb_d                              0.001652                          1   4
  344        m_bcast_d                             0.009836                            2   3
  345      potlok_metagga                        0.000001                              1   2
  346      set_dd_magatom                        0.000001                              1   2
  347      set_dd_paw                            2.811861                              1   2
  348        set_rsgf_all                          0.000001                            1   3
  349        m_sumb_d                              2.811541                            7   3
  350      m_bcast_d                             0.000375                              2   2
  351      densta                                0.002772                              1   2
  352        m_sumb_d                              0.001862                            6   3

 Flat profile

 eddav                                2126.897361          37
 lapack                                361.415549       13852
 m_sumb_d                              332.973620      101532
 total_time                            311.280498           1
 dfftw_execute                         146.353256      134958
 m_alltoall_d                          125.543831      102004
 orth1                                 121.673526       41676
 ggemm                                 102.308282       18292
 m_bcast_z                              96.767991       21652
 m_alltoallv_z                          91.335133       45120
 set_charge                             58.098339          33
 fftwav_mpi                             50.753880       27992
 map_scatter                            50.038851       45120
 map_gather                             49.816194       45120
 potlok                                 49.600756          34
 vhamil                                 34.386009       13852
 map_forward                            32.558580       59062
 lincom                                 29.667049         228
 fftbas_plan_mpi                        26.175324       44986
 racc0                                  22.230933       13852
 rpro1                                  16.258437        9412
 crrexp_mul_work_add                    14.716828     3102848
 crrexp_mul_wave                         8.602811     2457728
 eccp                                    6.134038        4440
 m_bcast_d                               5.650559       27776
 redis_pw                                5.255265       37572
 w1_copy                                 5.186506       41556
 fftext_mpi                              4.958771       13852
 pw_charge                               4.523900        3168
 kinhamil                                2.758402       13852
 phaser                                  2.645633         261
 augmentation_charge                     2.396819          33
 setdij_                                 2.267943          61
 apply_precond                           2.250064        9412
 choleski                                1.617969           6
 force_and_stress                        1.473997           1
 fft3d_mpi                               1.427928       44986
 rpromu_gemm                             1.017771       87360
 redis_proj                              0.939755       46990
 overl                                   0.827969       23270
 setup_precond                           0.764048        4440
 overl1                                  0.682757       13852
 rpromu                                  0.660429         390
 map_backward                            0.478551       30910
 rspher_all                              0.473000          14
 inisym                                  0.355050           1
 elmin                                   0.305156           1
 hamiltmu                                0.276760       13852
 soft_charge                             0.263878          33
 newband                                 0.235113       14074
 brmix                                   0.156885          33
 raccmu_                                 0.155473       13852
 fftbas_mpi                              0.142995       41844
 forhar                                  0.137497           2
 orthch                                  0.136698           1
 forloc                                  0.068403           1
 broyd                                   0.067943          33
 depsum                                  0.065412          33
 w1_projall                              0.061482        9412
 rsp                                     0.059874          69
 stufak                                  0.045678           1
 densta                                  0.045545          38
 setg0                                   0.034222          35
 brget                                   0.025619        2931
 strnlr                                  0.021581           1
 rpro_isp                                0.019643          39
 truncate_high_frequency_w1              0.018794       18292
 fft_gq                                  0.016406          33
 set_dd_paw                              0.016406          35
 strkin                                  0.013656           1
 brsav                                   0.011682         699
 fftbrc_mpi                              0.010794        3142
 fewald                                  0.009021          69
 brpre                                   0.008291          66
 rcp                                     0.007614          69
 fornlr                                  0.007228           1
 chggra                                  0.006069           1
 pothar                                  0.005874          35
 strelo                                  0.001882           1
 posmap                                  0.001860           2
 strehar                                 0.001781           1
 vectorpot                               0.000682          34
 brgrid                                  0.000483           1
 fordep                                  0.000399           1
 crpa_reader                             0.000246           1
 proall                                  0.000092           1
 set_rsgf_all                            0.000085          35
 potlok_metagga                          0.000084          34
 set_dd_magatom                          0.000052          35
 rotate_active_occupied_orbital          0.000017           1
 redis_pw_over_bands                     0.000001           1
  summed up times    4316.66552019119

 Accumulative profile

 total_time                           4316.665520           1
 elmin                                3896.766807           1
 eddav                                3618.952110          37
 fft3d_mpi                             398.337607       44986
 fftbas_plan_mpi                       396.755889       44986
 fftbas_mpi                            367.514078       41844
 lapack                                361.415549       13852
 m_sumb_d                              332.973620      101532
 fftwav_mpi                            313.452601       27992
 hamiltmu                              190.097874       13852
 map_forward                           163.370760       59062
 dfftw_execute                         146.353256      134958
 m_alltoall_d                          125.543831      102004
 orth1                                 121.673526       41676
 kinhamil                              112.739288       13852
 fftext_mpi                            109.980886       13852
 set_charge                            108.395518          33
 ggemm                                 102.308282       18292
 set_dd_paw                             99.281430          35
 m_bcast_z                              96.767991       21652
 m_alltoallv_z                          91.335133       45120
 potlok                                 78.654363          34
 redis_pw                               76.931385       37572
 newband                                69.442861       14074
 map_backward                           60.856549       30910
 redis_proj                             54.807466       46990
 map_scatter                            50.038851       45120
 map_gather                             49.816194       45120
 raccmu_                                42.695817       13852
 racc0                                  41.857586       13852
 soft_charge                            39.082716          33
 vhamil                                 34.386009       13852
 lincom                                 29.667049         228
 fftbrc_mpi                             29.395600        3142
 force_and_stress                       28.291697           1
 w1_projall                             26.908442        9412
 rpro1                                  26.846960        9412
 rpro_isp                               18.729946          39
 crrexp_mul_work_add                    14.716828     3102848
 strnlr                                 13.619140           1
 crrexp_mul_wave                         8.602811     2457728
 eccp                                    7.192727        4440
 m_bcast_d                               5.650559       27776
 w1_copy                                 5.186506       41556
 fornlr                                  4.584792           1
 pw_charge                               4.523900        3168
 orthch                                  4.137102           1
 augmentation_charge                     3.440072          33
 setdij_                                 3.157137          61
 rpromu                                  3.119693         390
 phaser                                  2.645633         261
 apply_precond                           2.250064        9412
 choleski                                1.617969           6
 proall                                  1.529676           1
 rpromu_gemm                             1.017771       87360
 setup_precond                           0.872789        4440
 overl                                   0.827969       23270
 overl1                                  0.682757       13852
 rspher_all                              0.473000          14
 brmix                                   0.451271          33
 fft_gq                                  0.439661          33
 inisym                                  0.356910           1
 fordep                                  0.293626           1
 broyd                                   0.221123          33
 densta                                  0.211392          38
 depsum                                  0.184285          33
 forhar                                  0.140884           2
 fewald                                  0.086556          69
 forloc                                  0.070821           1
 rsp                                     0.059874          69
 chggra                                  0.047199           1
 stufak                                  0.045678           1
 pothar                                  0.038994          35
 setg0                                   0.034222          35
 brget                                   0.025619        2931
 truncate_high_frequency_w1              0.018794       18292
 strkin                                  0.015433           1
 brsav                                   0.011682         699
 brpre                                   0.008291          66
 rcp                                     0.007614          69
 strelo                                  0.002278           1
 strehar                                 0.002269           1
 posmap                                  0.001860           2
 vectorpot                               0.000682          34
 brgrid                                  0.000483           1
 crpa_reader                             0.000246           1
 set_rsgf_all                            0.000085          35
 potlok_metagga                          0.000084          34
 set_dd_magatom                          0.000052          35
 rotate_active_occupied_orbital          0.000017           1
 redis_pw_over_bands                     0.000001           1

Profiling took   3.997393  2.166200  0.010839  0.010123 seconds
Profiling took   4.397406 seconds