 vasp.6.3.2 27Jun22 (build Jul 18 2024 17:50:03) complex
 executed on              LinuxNV date 2024.08.13  03:49:19

 INCAR:
   ENCUT = 600.00
   EDIFF = 1.00e-06
   EDIFFG = -0.03
   IBRION = 2
   ALGO = Normal
   ISMEAR = 0
   SIGMA = 0.05
   LCHARG = .FALSE.
   LWAVE = .FALSE.
   LREAL = Auto
   NELM = 2000
   NSW = 5000
   NCORE = 16
   KPAR = 4
   ISPIN = 2
   GGA = MK
   PARAM1 = 0.1234
   PARAM2 = 1.0
   AGGAC = 0.0
   LUSE_VDW = .TRUE.
   LASPH = .TRUE.
   LDIPOL = .TRUE.
   DIPOL = 0.5 0.5 0.5
   IDIPOL = 3

 POTCAR:    PAW_PBE Mo_sv 02Feb2006
 POTCAR:    PAW_PBE S 06Sep2000
 POTCAR:    PAW_PBE H 15Jun2001
 POTCAR:    PAW_PBE C 08Apr2002
 POTCAR:    PAW_PBE F 08Apr2002
|           W    W    AA    RRRRR   N    N  II  N    N   GGGG   !!!           |
|           W    W   A  A   R    R  NN   N  II  NN   N  G    G  !!!           |
|           W    W  A    A  R    R  N N  N  II  N N  N  G       !!!           |
|           W WW W  AAAAAA  RRRRR   N  N N  II  N  N N  G  GGG   !            |
|           WW  WW  A    A  R   R   N   NN  II  N   NN  G    G                |
|           W    W  A    A  R    R  N    N  II  N    N   GGGG   !!!           |
|     You use a magnetic or noncollinear calculation, but did not specify     |
|     the initial magnetic moment with the MAGMOM tag. Note that a            |
|     default of 1 will be used for all atoms. This ferromagnetic setup       |
|     may break the symmetry of the crystal, in particular it may rule        |
|     out finding an antiferromagnetic solution. Thence, we recommend         |
|     setting the initial magnetic moment manually or verifying carefully     |
|     that this magnetic setup is desired.                                    |

   TITEL  = PAW_PBE Mo_sv 02Feb2006
   POMASS =   95.940; ZVAL   =   14.000    mass and valenz
   ENMAX  =  242.676; ENMIN  =  182.007 eV

   TITEL  = PAW_PBE S 06Sep2000
   POMASS =   32.066; ZVAL   =    6.000    mass and valenz
   ENMAX  =  258.689; ENMIN  =  194.016 eV

   TITEL  = PAW_PBE H 15Jun2001
   POMASS =    1.000; ZVAL   =    1.000    mass and valenz
   ENMAX  =  250.000; ENMIN  =  200.000 eV

   TITEL  = PAW_PBE C 08Apr2002
   POMASS =   12.011; ZVAL   =    4.000    mass and valenz
   ENMAX  =  400.000; ENMIN  =  300.000 eV

   TITEL  = PAW_PBE F 08Apr2002
   POMASS =   18.998; ZVAL   =    7.000    mass and valenz
   ENMAX  =  400.000; ENMIN  =  300.000 eV

 Optimization of the real space projectors (new method)

 maximal supplied QI-value         = 15.12
 optimisation between [QCUT,QGAM] = [ 12.55, 25.10] = [ 44.09,176.36] Ry
 Optimized for a Real-space Cutoff    1.47 Angstroem

   l    n(q)    QCUT    max X(q) W(low)/X(q) W(high)/X(q)  e(spline)
   0     11    12.548     3.559    0.18E-04    0.60E-05    0.19E-06
   0     11    12.548    20.730    0.37E-04    0.13E-04    0.98E-07
   1     11    12.548     3.279    0.80E-06    0.70E-06    0.27E-07
   1     11    12.548     4.693    0.72E-04    0.11E-03    0.38E-06
   2     10    12.548    67.616    0.34E-03    0.45E-03    0.54E-06
   2     10    12.548    62.420    0.34E-03    0.45E-03    0.54E-06
 Optimization of the real space projectors (new method)

[...]

   l    n(q)    QCUT    max X(q) W(low)/X(q) W(high)/X(q)  e(spline)
   0      8    12.315   115.676    0.34E-03    0.18E-03    0.23E-06
   0      8    12.315    87.132    0.34E-03    0.18E-03    0.22E-06
   1      7    12.315     4.429    0.45E-03    0.12E-03    0.18E-06
   1      7    12.315     2.733    0.35E-03    0.97E-04    0.15E-06
 Optimization of the real space projectors (new method)

 maximal supplied QI-value         = 24.76
 optimisation between [QCUT,QGAM] = [ 12.38, 25.00] = [ 42.90,175.06] Ry
 Optimized for a Real-space Cutoff    1.03 Angstroem

   l    n(q)    QCUT    max X(q) W(low)/X(q) W(high)/X(q)  e(spline)
   0      8    12.378    14.049    0.35E-03    0.80E-04    0.14E-06
   0      8    12.378     8.945    0.50E-03    0.13E-03    0.19E-06
   1      7    12.378     7.086    0.49E-03    0.21E-03    0.21E-06
   1      7    12.378     6.747    0.44E-03    0.20E-03    0.19E-06
|               ----> ADVICE to this user running VASP <----                  |
|     You enforced a specific xc type in the INCAR file but a different       |
|     type was found in the POTCAR file.                                      |
|     I HOPE YOU KNOW WHAT YOU ARE DOING!                                     |

  PAW_PBE Mo_sv 02Feb2006               :
  PAW_PBE S 06Sep2000                   :
  PAW_PBE H 15Jun2001                   :
  PAW_PBE C 08Apr2002                   :
  PAW_PBE F 08Apr2002                   :

 POSCAR: Mo S  H  C  F  H
  positions in direct lattice
  velocities in cartesian coordinates
 exchange correlation table for  LEXCH =       43
   RHO(1)=    0.500       N(1)  =     2000
   RHO(2)=  100.500       N(2)  =     4000

 VTST: version 4.1, (05/19/21)

 CHAIN: initializing optimizer

 OPT: Using VASP Conjugate-Gradient optimizer
 CHAIN: Read ICHAIN             0

 POSCAR: Mo S  H  C  F  H
  positions in direct lattice
  velocities in cartesian coordinates

 ion  position               nearest neighbor table
   1  0.131  0.063  0.500- 144 2.41 159 2.41 147 2.41 138 2.41 162 2.41 141 2.41  49 3.16  72 3.16
                            62 3.17  67 3.17  71 3.17  20 3.17
   2  0.665  0.731  0.671- 106 2.40 108 2.40 196 2.41 114 2.41 193 2.41 117 2.41   8 3.15  64 3.15
                            37 3.16  42 3.17  55 3.18  32 3.19
   3  0.264  0.928  0.669- 155 2.40 215 2.40 140 2.41 143 2.41 218 2.41 149 2.41  25 3.16  74 3.16
                             9 3.16  51 3.16  28 3.17  50 3.17
   4  0.265  0.930  0.330- 217 2.41 142 2.41 146 2.41 148 2.41 139 2.41 214 2.41  29 3.16  10 3.16
                            52 3.16  75 3.16  24 3.16  70 3.17
   5  0.331  0.863  0.500- 213 2.41 210 2.41 197 2.41 136 2.41 207 2.41 216 2.41  12 3.16  53 3.16
                            71 3.16  23 3.17  30 3.17  72 3.17
   6  0.731  0.863  0.500- 116 2.41 110 2.41  89 2.41  76 2.41 119 2.41 100 2.41  67 3.16  46 3.16
                            49 3.16  22 3.16  34 3.16  30 3.17
   7  0.665  0.930  0.330- 105 2.41 201 2.41  94 2.41 107 2.41  97 2.41 198 2.41  29 3.16  16 3.16
                            11 3.16  26 3.16  63 3.16  33 3.17
   8  0.664  0.929  0.670-  96 2.40  93 2.41 108 2.41 106 2.41 199 2.41 134 2.42   2 3.15  27 3.15
                            17 3.16  28 3.17  32 3.17  64 3.17
   9  0.263  0.728  0.670- 209 2.40 215 2.41 157 2.41 137 2.41 218 2.41 212 2.41  32 3.15  51 3.16
                            13 3.16   3 3.16  56 3.16  28 3.17
  10  0.265  0.730  0.330- 217 2.41 145 2.41 208 2.41 211 2.41 214 2.41 158 2.41  52 3.16  57 3.16
                             4 3.16  14 3.16  33 3.16  29 3.17
  11  0.665  0.730  0.330- 115 2.41 118 2.41 195 2.41 105 2.41 107 2.41 192 2.41  33 3.16  38 3.16
                            63 3.16   7 3.16  41 3.17  69 3.17
  12  0.331  0.663  0.500- 204 2.41 179 2.41 194 2.41 207 2.41 191 2.41 210 2.41  15 3.16  59 3.16
                            30 3.16   5 3.16  34 3.17  53 3.17
  13  0.264  0.529  0.671- 209 2.40 206 2.40 173 2.41 212 2.41 176 2.41 181 2.41   9 3.16  60 3.16
                            32 3.17  56 3.17  18 3.17  37 3.18
  14  0.265  0.530  0.330- 211 2.41 175 2.41 172 2.41 180 2.41 205 2.41 208 2.41  33 3.16  38 3.16
                            10 3.16  19 3.16  57 3.16  61 3.17
  15  0.332  0.463  0.500- 150 2.41 153 2.41 204 2.41 186 2.41 188 2.41 179 2.41  12 3.16  34 3.16
                            39 3.16  62 3.16  20 3.17  59 3.17
  16  0.865  0.130  0.330-  94 2.41  90 2.41 102 2.41 124 2.41  97 2.41 132 2.41  26 3.16   7 3.16
                            66 3.16  61 3.16  47 3.16  63 3.17
  17  0.864  0.129  0.670- 104 2.41 122 2.41  91 2.41  96 2.41  88 2.41  93 2.41  64 3.16  48 3.16
                            60 3.16  27 3.16   8 3.16  65 3.17
  18  0.266  0.329  0.671- 152 2.40 206 2.40 167 2.41 170 2.41 181 2.41 178 2.43  50 3.16  13 3.17
                            65 3.18  60 3.18  37 3.18  43 3.22
  19  0.265  0.330  0.330- 169 2.41 205 2.41 154 2.41 151 2.41 180 2.41 166 2.41  70 3.16  61 3.16
                            38 3.16  14 3.16  44 3.17  66 3.17
  20  0.331  0.263  0.500- 153 2.41 183 2.41 150 2.41 144 2.41 202 2.41 147 2.41  62 3.16  39 3.16
                            45 3.16   1 3.17  15 3.17  71 3.17
  21  0.931  0.263  0.500- 168 2.41 123 2.41  80 2.41  81 2.41 131 2.41 165 2.41  49 3.16  62 3.16
                            22 3.16  31 3.17  59 3.17  73 3.17
  22  0.731  0.063  0.500- 110 2.41  80 2.41 101 2.41  76 2.41  95 2.41 131 2.41   6 3.16  49 3.16
                            21 3.16  31 3.17  23 3.17  30 3.17
  23  0.531  0.063  0.500- 219 2.41 136 2.41 101 2.41 197 2.41 222 2.41  95 2.41  30 3.16   5 3.17
                            22 3.17  45 3.17  71 3.17  31 3.17
  24  0.465  0.130  0.330- 203 2.41 184 2.41 146 2.41 148 2.41 200 2.41 220 2.41  44 3.16  35 3.16
                            26 3.16   4 3.16  29 3.16  70 3.17
  25  0.464  0.127  0.669- 182 2.40 223 2.40 221 2.40 149 2.41 155 2.41 185 2.42  43 3.09  28 3.14
                            36 3.15  27 3.15   3 3.16  50 3.18
  26  0.665  0.130  0.330- 203 2.41  97 2.41  84 2.41  94 2.41 220 2.41  78 2.41  35 3.16  47 3.16
                            16 3.16   7 3.16  24 3.16  29 3.17
  27  0.664  0.128  0.669-  96 2.40  93 2.41  79 2.41 221 2.41  85 2.41 223 2.41  36 3.15   8 3.15
                            25 3.15  17 3.16  28 3.17  48 3.17
  28  0.464  0.928  0.669- 199 2.40 221 2.40 223 2.40 215 2.41 218 2.41 134 2.41  32 3.14  25 3.14
                            27 3.17   8 3.17   3 3.17   9 3.17
  29  0.465  0.930  0.330- 201 2.41 217 2.41 203 2.41 198 2.41 214 2.41 220 2.41   7 3.16   4 3.16
                            33 3.16  24 3.16  10 3.17  26 3.17
  30  0.531  0.863  0.500- 197 2.41 194 2.41 110 2.41  76 2.41 136 2.41 191 2.41  34 3.16  12 3.16
                            23 3.16   5 3.17  22 3.17   6 3.17
  31  0.731  0.263  0.500-  81 2.41 101 2.41  77 2.41  95 2.41  87 2.41 123 2.41  73 3.16  45 3.16
                            22 3.17  21 3.17  23 3.17  40 3.17
  32  0.463  0.730  0.670- 193 2.37 134 2.40 212 2.41 199 2.41 196 2.41 209 2.42  28 3.14   9 3.15
                            13 3.17   8 3.17  37 3.17   2 3.19
  33  0.465  0.730  0.330- 195 2.41 211 2.41 201 2.41 198 2.41 208 2.41 192 2.41  11 3.16  14 3.16
                            29 3.16  10 3.16  38 3.17   7 3.17
  34  0.532  0.663  0.500- 188 2.41 191 2.41 186 2.41 194 2.41 116 2.41 119 2.41  46 3.16  15 3.16
                            30 3.16   6 3.16  39 3.16  12 3.17
  35  0.665  0.330  0.330- 127 2.41  84 2.41 130 2.41 200 2.41 184 2.41  78 2.41  44 3.16  26 3.16
                            24 3.16  68 3.16  47 3.17  41 3.17
  36  0.663  0.326  0.669- 182 2.40  85 2.40  79 2.41 126 2.41 185 2.42 129 2.44  43 3.10  27 3.15
                            25 3.15  48 3.17  58 3.18  42 3.21
  37  0.466  0.531  0.674- 193 2.38 181 2.39 196 2.43 190 2.43 206 2.43 225 2.61  42 3.12   2 3.16
                            32 3.17  18 3.18  13 3.18  43 3.30
[...]
   -.336E+00 -.246E+01 0.754E+02   0.344E+00 0.246E+01 -.754E+02   -.803E-02 -.138E-02 -.393E-02   0.429E-05 -.244E-04 0.236E-03
   -.487E+02 -.167E+02 -.348E+04   0.487E+02 0.167E+02 0.348E+04   -.139E-01 -.921E-02 0.213E+00   0.841E-04 0.392E-04 -.602E-04
   0.667E+01 -.239E+01 -.360E+04   -.660E+01 0.242E+01 0.360E+04   -.781E-01 -.367E-01 -.366E-01   -.502E-03 -.250E-04 0.227E-03
   -.697E+00 0.792E-01 0.372E+04   0.692E+00 -.790E-01 -.372E+04   0.211E-02 0.478E-02 0.418E-01   0.825E-05 -.302E-04 0.416E-03
   0.267E+01 0.109E+01 0.759E+02   -.268E+01 -.109E+01 -.759E+02   0.308E-02 -.171E-02 0.254E-02   0.400E-04 0.315E-04 0.232E-03
   -.220E+00 0.524E+00 0.737E+02   0.217E+00 -.526E+00 -.737E+02   0.464E-02 0.375E-02 0.502E-02   -.608E-05 -.608E-05 0.244E-03
   0.395E-01 -.582E+00 0.372E+04   -.443E-01 0.577E+00 -.372E+04   0.191E-02 0.184E-02 0.401E-01   -.152E-04 0.281E-04 0.411E-03
   -.347E+02 -.359E+02 -.356E+04   0.348E+02 0.360E+02 0.356E+04   -.733E-01 -.768E-01 0.200E-01   0.342E-03 0.293E-03 0.116E-03
   0.115E+02 -.273E+02 -.359E+04   -.115E+02 0.273E+02 0.359E+04   -.314E-01 -.245E-01 -.414E-01   -.263E-04 0.223E-03 0.202E-03
   -.161E+00 -.129E+00 0.372E+04   0.160E+00 0.127E+00 -.372E+04   0.855E-03 -.659E-03 0.384E-01   0.152E-04 0.615E-04 0.411E-03
   -.917E-01 0.164E+00 0.372E+04   0.920E-01 -.166E+00 -.372E+04   0.290E-03 0.552E-03 0.390E-01   -.698E-05 -.895E-04 0.428E-03
   0.334E+01 0.101E+01 0.686E+02   -.335E+01 -.102E+01 -.686E+02   0.996E-02 0.865E-02 0.293E-03   0.313E-04 0.962E-05 0.244E-03
   0.411E+02 -.329E+02 -.359E+04   -.411E+02 0.329E+02 0.359E+04   0.503E-01 -.888E-02 -.364E-01   0.778E-04 0.207E-03 0.120E-03
   0.847E+00 0.382E+00 0.372E+04   -.850E+00 -.382E+00 -.372E+04   0.907E-05 -.117E-02 0.354E-01   -.391E-04 0.825E-05 0.417E-03
   0.135E+01 -.171E+01 0.678E+02   -.135E+01 0.170E+01 -.678E+02   0.502E-02 0.867E-02 -.247E-02   0.385E-05 -.246E-04 0.231E-03
   -.917E+00 0.485E+00 0.372E+04   0.914E+00 -.485E+00 -.372E+04   0.314E-02 -.243E-02 0.378E-01   0.608E-04 0.531E-04 0.408E-03
   -.217E+02 -.868E+01 -.361E+04   0.217E+02 0.868E+01 0.361E+04   -.567E-01 0.440E-03 -.640E-02   -.123E-03 0.412E-03 0.202E-03
   0.374E+02 -.389E+01 -.360E+04   -.374E+02 0.371E+01 0.360E+04   -.679E-02 0.178E+00 -.115E+00   -.146E-03 0.373E-03 0.461E-04
   0.508E+00 -.329E+00 0.372E+04   -.508E+00 0.326E+00 -.372E+04   0.273E-02 -.927E-03 0.393E-01   -.830E-04 -.109E-04 0.417E-03
   -.475E+00 -.393E+01 0.699E+02   0.477E+00 0.394E+01 -.699E+02   -.438E-02 -.800E-02 -.561E-02   0.495E-04 -.862E-04 0.194E-03
   -.329E+01 0.274E+00 0.661E+02   0.330E+01 -.273E+00 -.661E+02   -.545E-03 0.313E-02 -.725E-04   -.273E-04 0.427E-04 0.253E-03
   -.301E+01 0.705E+00 0.741E+02   0.301E+01 -.704E+00 -.741E+02   -.275E-02 0.131E-02 0.432E-02   0.865E-06 0.465E-04 0.259E-03
   -.103E+01 0.129E+01 0.807E+02   0.103E+01 -.128E+01 -.807E+02   0.206E-02 -.571E-02 0.161E-02   0.548E-04 -.734E-05 0.216E-03
   0.813E+00 0.205E+00 0.372E+04   -.812E+00 -.208E+00 -.372E+04   -.231E-02 0.543E-02 0.375E-01   0.511E-04 -.854E-05 0.422E-03
   0.293E+02 0.162E+02 -.357E+04   -.293E+02 -.161E+02 0.357E+04   0.205E-01 -.748E-01 -.691E-01   -.401E-03 -.298E-03 0.266E-03
   0.460E+00 -.217E+00 0.372E+04   -.462E+00 0.218E+00 -.372E+04   0.216E-02 0.106E-02 0.371E-01   0.579E-04 0.101E-03 0.418E-03
   -.107E+02 0.572E+01 -.360E+04   0.107E+02 -.569E+01 0.360E+04   -.261E-02 -.229E-01 -.552E-01   0.191E-03 -.635E-03 0.173E-03
   0.224E+01 -.259E+02 -.358E+04   -.220E+01 0.260E+02 0.358E+04   -.476E-01 -.855E-01 -.318E-01   -.861E-04 -.203E-03 0.181E-03
   -.268E+00 -.719E+00 0.372E+04   0.267E+00 0.718E+00 -.372E+04   0.286E-02 0.311E-02 0.366E-01   0.318E-04 0.488E-04 0.407E-03
   0.114E+01 0.127E+01 0.753E+02   -.114E+01 -.127E+01 -.753E+02   0.450E-02 -.870E-03 0.786E-02   0.900E-05 0.168E-04 0.240E-03
   -.372E+01 0.151E+01 0.723E+02   0.373E+01 -.151E+01 -.723E+02   -.393E-02 -.567E-03 0.437E-02   0.571E-05 0.270E-05 0.214E-03
   0.969E+01 -.630E+02 -.351E+04   -.961E+01 0.631E+02 0.351E+04   -.753E-01 -.684E-01 0.325E-01   0.244E-04 0.244E-03 0.529E-04
   -.202E-01 -.404E+00 0.372E+04   0.183E-01 0.402E+00 -.372E+04   0.868E-04 0.106E-02 0.391E-01   0.166E-04 0.208E-04 0.412E-03
   0.244E+01 0.606E+00 0.695E+02   -.245E+01 -.617E+00 -.695E+02   0.155E-01 0.527E-02 -.484E-03   0.384E-04 -.773E-04 0.238E-03
   -.929E-01 0.169E+00 0.373E+04   0.928E-01 -.169E+00 -.373E+04   -.146E-02 -.386E-02 0.415E-01   0.389E-04 -.624E-05 0.437E-03
   -.157E+02 0.427E+02 -.356E+04   0.155E+02 -.429E+02 0.356E+04   0.224E+00 0.168E+00 0.132E+00   0.402E-03 -.101E-02 0.230E-03
   0.855E+02 0.176E+02 -.359E+04   -.854E+02 -.167E+02 0.359E+04   -.351E-01 -.969E+00 0.695E+00   0.291E-03 0.678E-03 -.136E-03
   0.615E+00 0.292E+00 0.372E+04   -.618E+00 -.289E+00 -.372E+04   0.252E-02 -.437E-02 0.364E-01   0.677E-04 -.531E-04 0.424E-03
   0.390E+00 -.180E+01 0.687E+02   -.382E+00 0.181E+01 -.687E+02   -.120E-01 -.635E-02 -.345E-02   0.772E-04 -.198E-04 0.191E-03
   -.169E+01 0.714E+00 0.701E+02   0.169E+01 -.708E+00 -.701E+02   -.161E-02 -.506E-02 0.464E-03   0.184E-04 -.264E-05 0.187E-03
   -.638E+00 0.404E+00 0.372E+04   0.634E+00 -.401E+00 -.372E+04   0.200E-02 -.195E-02 0.423E-01   0.105E-04 -.803E-04 0.432E-03
   0.138E+02 0.590E+02 -.360E+04   -.131E+02 -.597E+02 0.360E+04   -.709E+00 0.688E+00 0.103E+01   0.568E-03 0.397E-03 -.115E-03
   0.275E+02 -.377E+02 -.342E+04   -.269E+02 0.372E+02 0.342E+04   -.640E+00 0.472E+00 0.240E+00   -.698E-03 0.775E-04 -.523E-03
   0.396E+00 -.472E+00 0.372E+04   -.398E+00 0.471E+00 -.372E+04   0.205E-02 -.178E-02 0.391E-01   0.247E-04 -.121E-03 0.427E-03
   -.225E+01 -.143E+01 0.740E+02   0.226E+01 0.144E+01 -.740E+02   -.265E-02 -.808E-02 -.714E-03   -.290E-04 -.269E-05 0.171E-03
   0.112E+01 0.787E+00 0.694E+02   -.113E+01 -.788E+00 -.694E+02   0.784E-02 0.181E-02 -.450E-02   -.754E-04 -.106E-04 0.224E-03
   -.594E+00 0.168E+00 0.372E+04   0.594E+00 -.168E+00 -.372E+04   -.436E-03 0.183E-03 0.368E-01   -.765E-04 0.744E-04 0.415E-03
   -.790E+01 0.148E+02 -.361E+04   0.788E+01 -.148E+02 0.361E+04   0.352E-01 -.389E-01 0.177E-01   -.165E-03 -.390E-03 0.181E-03
   -.266E+01 -.126E+01 0.737E+02   0.266E+01 0.127E+01 -.737E+02   -.261E-02 -.202E-02 0.320E-02   -.842E-05 0.473E-04 0.247E-03
   0.244E+02 0.150E-01 -.359E+04   -.243E+02 -.213E-01 0.359E+04   -.133E+00 0.735E-02 -.254E-01   -.416E-03 -.157E-03 0.157E-03
   -.143E+02 0.156E+02 -.360E+04   0.143E+02 -.156E+02 0.360E+04   -.518E-01 0.523E-02 -.358E-01   0.287E-03 0.737E-04 0.178E-03
   0.172E+00 -.791E-01 0.373E+04   -.170E+00 0.817E-01 -.373E+04   0.144E-02 -.300E-02 0.432E-01   -.306E-04 -.174E-04 0.415E-03
   0.287E+01 0.196E+01 0.698E+02   -.287E+01 -.197E+01 -.698E+02   0.432E-02 0.377E-02 0.556E-02   -.668E-04 0.677E-05 0.238E-03
   0.122E+01 0.200E+01 0.701E+02   -.122E+01 -.200E+01 -.701E+02   0.713E-03 0.143E-02 -.285E-02   -.172E-04 0.205E-04 0.237E-03
   -.478E+02 0.387E+02 -.353E+04   0.478E+02 -.388E+02 0.353E+04   -.219E-01 0.303E-01 0.244E-01   0.563E-03 -.521E-04 0.443E-04
   0.747E+01 0.121E+01 -.361E+04   -.745E+01 -.122E+01 0.361E+04   -.204E-01 0.116E-01 -.443E-01   0.740E-04 0.118E-03 0.162E-03
   0.400E+00 0.307E+00 0.372E+04   -.399E+00 -.308E+00 -.372E+04   0.211E-02 -.116E-02 0.355E-01   -.303E-04 0.624E-04 0.415E-03
   -.102E+02 0.427E+02 -.360E+04   0.102E+02 -.428E+02 0.360E+04   0.141E-01 0.855E-01 -.365E-01   0.308E-03 -.490E-03 0.114E-03
   0.102E+01 0.403E+00 0.650E+02   -.102E+01 -.411E+00 -.650E+02   0.434E-02 0.593E-02 0.218E-02   -.166E-04 0.650E-04 0.231E-03
   0.123E+02 -.753E+01 -.362E+04   -.123E+02 0.750E+01 0.362E+04   0.746E-02 0.258E-01 0.315E-01   -.318E-03 0.326E-03 0.155E-03
[...]
   -.444E+01 0.191E+01 -.771E+03   0.441E+01 -.191E+01 0.766E+03   0.231E-01 0.681E-02 0.411E+01   0.349E-04 -.174E-03 -.515E-03
   0.102E+03 0.676E+02 -.211E+04   -.110E+03 -.746E+02 0.211E+04   0.775E+01 0.705E+01 0.142E+01   0.144E-03 0.225E-03 0.268E-03
   0.730E+00 0.853E+01 -.342E+03   -.212E+00 -.878E+01 0.343E+03   -.515E+00 0.243E+00 -.133E+01   0.825E-04 -.586E-05 0.309E-04
   -.518E+02 -.273E+02 -.319E+03   0.556E+02 0.293E+02 0.315E+03   -.386E+01 -.202E+01 0.405E+01   -.105E-04 -.615E-06 0.583E-04
   -.755E+02 -.374E+02 -.288E+03   0.806E+02 0.398E+02 0.289E+03   -.508E+01 -.247E+01 -.151E+01   -.425E-04 -.212E-04 0.184E-04
   0.577E+02 0.318E+02 -.279E+03   -.612E+02 -.337E+02 0.283E+03   0.347E+01 0.197E+01 -.430E+01   0.311E-04 0.165E-04 0.147E-05
   0.722E+02 0.370E+02 -.309E+03   -.773E+02 -.396E+02 0.308E+03   0.503E+01 0.262E+01 0.142E+01   0.407E-04 0.250E-04 0.682E-04
   0.410E+02 0.663E+01 -.127E+04   -.405E+02 -.560E+01 0.127E+04   -.506E+00 -.103E+01 -.839E+00   0.104E-04 0.626E-04 0.193E-03
   -.107E+03 -.602E+02 -.124E+04   0.109E+03 0.609E+02 0.124E+04   -.140E+01 -.753E+00 0.134E+01   0.140E-03 0.866E-04 0.184E-03
   0.147E+03 0.769E+02 -.113E+04   -.149E+03 -.778E+02 0.113E+04   0.181E+01 0.990E+00 -.938E+00   -.360E-04 -.215E-04 0.149E-03
   -.167E+03 -.853E+02 -.114E+04   0.169E+03 0.862E+02 0.114E+04   -.198E+01 -.976E+00 0.341E+00   0.723E-04 0.336E-04 0.138E-03
   -.362E+01 -.260E+01 -.100E+04   0.122E+01 0.181E+01 0.994E+03   0.238E+01 0.793E+00 0.870E+01   0.969E-04 0.351E-04 0.347E-03
   0.165E+03 0.799E+02 -.122E+04   -.167E+03 -.807E+02 0.122E+04   0.134E+01 0.817E+00 0.376E+00   -.434E-04 -.112E-04 0.263E-03
   -.103E+03 -.353E+02 -.170E+04   0.117E+03 0.401E+02 0.175E+04   -.141E+02 -.477E+01 -.509E+02   0.135E-04 -.211E-05 0.140E-03
   0.814E+01 -.274E+01 0.339E+02   -.682E-12 0.131E-11 0.159E-11   -.815E+01 0.264E+01 -.338E+02   0.231E-03 0.250E-03 -.234E-01

 POSITION                                       TOTAL-FORCE (eV/Angst)
      1.53492     -0.93957     18.20144         0.000261     -0.003800     -0.004231
     11.04058      0.89785     24.42880        -0.000425     -0.004229      0.000362
      9.43009      9.10704     24.36558        -0.002348     -0.005483     -0.000365
      9.45993      9.11179     12.01448        -0.002304      0.005294      0.002863
      9.44521      7.28050     18.20282        -0.001942      0.000702     -0.002748
     12.61251      1.79829     18.20306         0.000796      0.001882      0.000481
     12.62468      3.63241     12.01553        -0.002926     -0.002415     -0.001157
     12.60248      3.62786     24.38523         0.002627     -0.001640      0.002814
      7.84585      6.37063     24.38287         0.003583      0.002799     -0.001207
      7.87666      6.37196     12.01368        -0.000018     -0.002076      0.001565
     11.04141      0.89295     12.01537         0.000613     -0.001147     -0.002160
      7.86434      4.54023     18.20684        -0.000488      0.001407      0.000096
      6.27270      3.62988     24.42721        -0.001431      0.003412      0.000726
      6.29574      3.63073     12.01378        -0.002437     -0.000377     -0.003484
      6.28479      1.79972     18.20568         0.003889     -0.000401      0.001148
      7.87730    -10.07145     12.01392         0.000440     -0.002159     -0.001943
      7.85558    -10.08050     24.39296        -0.001976      0.004064      0.002275
      4.70751      0.87049     24.43003        -0.002336      0.001501     -0.004237
      4.71299      0.89033     12.01551         0.002482     -0.003688     -0.000215
      4.70047     -0.94086     18.20749        -0.002697     -0.002448      0.003001
      9.44703     -9.16379     18.20694         0.003848      0.004706      0.001367
      6.28227     -9.16376     18.20364        -0.001398      0.001970      0.001065
      4.69881     -6.42315     18.20130         0.003153     -0.000893     -0.000425
      4.71346     -4.59031     12.01416        -0.000713      0.003023     -0.001177
      4.67618     -4.62117     24.34905         0.003115     -0.001359      0.007117
      6.29660     -7.33061     12.01419         0.000639      0.001835     -0.000487
      6.26617     -7.34421     24.37309         0.005186     -0.000299      0.003756
     11.01245      6.36463     24.36494        -0.001396     -0.003863      0.004135
     11.04221      6.37183     12.01722         0.002564      0.002104     -0.002823
     11.02787      4.53919     18.20387         0.002208     -0.003708      0.003683
      7.86445     -6.42246     18.20511         0.002373      0.001348      0.004563
      9.43735      3.65404     24.38373        -0.000167     -0.000633     -0.002453
      9.45936      3.63166     12.01548        -0.001740     -0.000884     -0.002252
      9.44817      1.79839     18.20586         0.001497     -0.005263      0.001268
      7.87783     -4.59056     12.01296        -0.001431     -0.003250      0.002698
      7.82666     -4.61220     24.37496         0.000572      0.000823      0.000200
      7.88764      0.89034     24.55113        -0.002630     -0.001463     -0.000393
      7.87757      0.89027     12.01598        -0.000525     -0.000777     -0.002060
      7.86503     -0.94189     18.20629        -0.004110      0.001386     -0.000275
      9.44709     -3.68036     18.20498         0.002117      0.001342     -0.002448
      9.46031     -1.84936     12.01599        -0.002319      0.000679      0.002068
      9.42131     -1.82741     24.53140        -0.001187      0.000843     -0.003862
      6.23648     -1.95828     24.27064        -0.001547     -0.003119      0.002797
      6.29629     -1.85084     12.01476         0.000791     -0.002097     -0.000153
      6.28195     -3.68210     18.20682         0.002113     -0.001378      0.000347
     11.02913     -0.94115     18.20501         0.001807      0.001596     -0.002575
      9.46057     -7.33140     12.01521        -0.000145      0.001490      0.000098
      9.43139     -7.34162     24.39990         0.008557      0.004948      0.000700
      7.86533    -11.90393     18.20170         0.004053      0.001457      0.002631
      3.11078     -1.85442     24.36679        -0.004312      0.001258     -0.001824
      6.26657      9.10637     24.38864        -0.004835      0.004427     -0.000859
      6.29528      9.11141     12.01327         0.002922     -0.000028      0.002466
      6.28103      7.28281     18.20475        -0.000058     -0.001078      0.002603
     12.61040     -3.68003     18.20413        -0.001171      0.001317     -0.003812
     12.62078     -1.86179     24.40017         0.001388     -0.000543     -0.001041
      4.68213      6.36904     24.40193         0.003507      0.003465     -0.001120
      4.71273      6.37101     12.01582         0.003087     -0.002013     -0.002820
     11.01016     -4.59112     24.42328        -0.000479      0.001483      0.003319
      4.70102      4.54076     18.20728         0.000741     -0.001320      0.001720
      3.10814      3.61923     24.41431         0.001649      0.002162      0.004501
[...]
      4.68113     -6.44842     22.78867         0.007675     -0.007749      0.002418
     14.18202     -0.93905     22.81978        -0.003303      0.000135     -0.001036
      8.13254     -0.65085     26.63939        -0.014028     -0.007522     -0.011244
      7.61969     -1.86647     25.29362         0.003678     -0.007786     -0.009454
     10.72674      0.79962     27.86220        -0.007423     -0.005842      0.008899
     11.33889      1.02471     30.23145         0.005039     -0.003398      0.003545
      7.66504     -0.87796     31.41981        -0.016754      0.003853     -0.001404
      7.01637     -1.12757     29.01328        -0.009327      0.012654      0.001350
      8.80273     -0.16537     28.25401         0.000945      0.001870      0.013388
     10.02791      0.43218     28.60959        -0.010357     -0.002194     -0.015813
      8.31077     -0.51111     30.62133         0.001909      0.013920     -0.009278
     10.39111      0.56336     29.94898        -0.016682     -0.007829     -0.000257
      9.52668      0.08970     30.92832        -0.019768      0.004477     -0.008012
      7.95773     -0.63876     29.27989        -0.012803      0.003926     -0.014654
      9.88732      0.21184     32.23490        -0.011125      0.001068      0.003314
    total drift:                               -0.014623     -0.092366      0.053884

  FREE ENERGIE OF THE ION-ELECTRON SYSTEM (eV)
  free  energy   TOTEN  =     -1278.51339801 eV

  energy  without entropy=    -1278.51339801  energy(sigma->0) =    -1278.51339801

 stress matrix after NEB project (eV)
      3.66249      1.93019      0.19564
      1.93019      5.40511      0.32676
      0.19564      0.32676     -0.20940
  FORCES: max atom, RMS     0.021795    0.006829
  FORCE total and by dimension    0.105138    0.019768
  Stress total and by dimension    7.100302    5.405115

 reached required accuracy - stopping structural energy minimisation