 vasp.6.3.2 27Jun22 (build Jan 03 2024 23:05:41) complex

 executed on           IFC15_impi date 2024.07.15  00:07:37

 INCAR:
   ENCUT = 600.00
   EDIFF = 1.00e-06
   EDIFFG = -0.01
   IBRION = 2
   ALGO = Normal
   ISMEAR = 0
   SIGMA = 0.05
   LCHARG = .FALSE.
   LWAVE = .FALSE.
   LREAL = Auto
   NELM = 2000
   NSW = 5000
   NCORE = 16
   KPAR = 8
   ISPIN = 2
   GGA = MK
   PARAM1 = 0.1234
   PARAM2 = 1.0
   AGGAC = 0.0
   LUSE_VDW = .TRUE.
   LASPH = .TRUE.
   LDIPOL = .TRUE.
   DIPOL = 0.5 0.5 0.5
   IDIPOL = 3

 POTCAR:    PAW_PBE Mo_sv 02Feb2006
 POTCAR:    PAW_PBE S 06Sep2000
|           W    W    AA    RRRRR   N    N  II  N    N   GGGG   !!!           |
|           W    W   A  A   R    R  NN   N  II  NN   N  G    G  !!!           |
|           W    W  A    A  R    R  N N  N  II  N N  N  G       !!!           |
|           W WW W  AAAAAA  RRRRR   N  N N  II  N  N N  G  GGG   !            |
|           WW  WW  A    A  R   R   N   NN  II  N   NN  G    G                |
|           W    W  A    A  R    R  N    N  II  N    N   GGGG   !!!           |
|     You use a magnetic or noncollinear calculation, but did not specify     |
|     the initial magnetic moment with the MAGMOM tag. Note that a            |
|     default of 1 will be used for all atoms. This ferromagnetic setup       |
|     may break the symmetry of the crystal, in particular it may rule        |
|     out finding an antiferromagnetic solution. Thence, we recommend         |
|     setting the initial magnetic moment manually or verifying carefully     |
|     that this magnetic setup is desired.                                    |

   TITEL  = PAW_PBE Mo_sv 02Feb2006
   POMASS =   95.940; ZVAL   =   14.000    mass and valenz
   ENMAX  =  242.676; ENMIN  =  182.007 eV

   TITEL  = PAW_PBE S 06Sep2000
   POMASS =   32.066; ZVAL   =    6.000    mass and valenz
   ENMAX  =  258.689; ENMIN  =  194.016 eV

 Optimization of the real space projectors (new method)

 maximal supplied QI-value         = 15.12
 optimisation between [QCUT,QGAM] = [ 12.55, 25.10] = [ 44.09,176.36] Ry
 Optimized for a Real-space Cutoff    1.47 Angstroem

   l    n(q)    QCUT    max X(q) W(low)/X(q) W(high)/X(q)  e(spline)
   0     11    12.548     3.559    0.18E-04    0.60E-05    0.19E-06
   0     11    12.548    20.730    0.37E-04    0.13E-04    0.98E-07
   1     11    12.548     3.279    0.80E-06    0.70E-06    0.27E-07
   1     11    12.548     4.693    0.72E-04    0.11E-03    0.38E-06
   2     10    12.548    67.616    0.34E-03    0.45E-03    0.54E-06
   2     10    12.548    62.420    0.34E-03    0.45E-03    0.54E-06
 Optimization of the real space projectors (new method)

 maximal supplied QI-value         = 19.84
 optimisation between [QCUT,QGAM] = [ 12.50, 25.00] = [ 43.76,175.03] Ry
 Optimized for a Real-space Cutoff    1.06 Angstroem

   l    n(q)    QCUT    max X(q) W(low)/X(q) W(high)/X(q)  e(spline)
   0      8    12.501   187.594    0.26E-03    0.17E-03    0.97E-07
   0      8    12.501   164.243    0.26E-03    0.17E-03    0.96E-07
   1      7    12.501    67.533    0.50E-03    0.61E-03    0.91E-07
   1      7    12.501    50.729    0.48E-03    0.60E-03    0.90E-07
|               ----> ADVICE to this user running VASP <----                  |
|     You enforced a specific xc type in the INCAR file but a different       |
|     type was found in the POTCAR file.                                      |
|     I HOPE YOU KNOW WHAT YOU ARE DOING!                                     |

  PAW_PBE Mo_sv 02Feb2006               :
  PAW_PBE S 06Sep2000                   :

 POSCAR: Mo  S
  positions in direct lattice
  velocities in cartesian coordinates
 exchange correlation table for  LEXCH =       43
   RHO(1)=    0.500       N(1)  =     2000
   RHO(2)=  100.500       N(2)  =     4000

 VTST: version 4.1, (05/19/21)

 CHAIN: initializing optimizer

 OPT: Using VASP Conjugate-Gradient optimizer
 CHAIN: Read ICHAIN            0

 POSCAR: Mo  S
  positions in direct lattice
  velocities in cartesian coordinates

 ion  position               nearest neighbor table
   1  0.133  0.067  0.500- 159 2.41 144 2.41 138 2.41 162 2.41 147 2.41 141 2.41  62 3.16  20 3.16
                            49 3.16  71 3.16  72 3.16  67 3.16
   2  0.667  0.733  0.670- 194 2.41 106 2.41 117 2.41 197 2.41 108 2.41 114 2.41  32 3.16   8 3.16
                            37 3.16  64 3.16  55 3.16  42 3.16
   3  0.267  0.933  0.670- 216 2.41 140 2.41 155 2.41 143 2.41 219 2.41 149 2.41  74 3.16   9 3.16
                            51 3.16  28 3.16  50 3.16  25 3.16
   4  0.267  0.933  0.330- 218 2.41 142 2.41 148 2.41 215 2.41 139 2.41 146 2.41  75 3.16  10 3.16
                            52 3.16  70 3.16  29 3.16  24 3.16
   5  0.333  0.867  0.500- 214 2.41 198 2.41 208 2.41 217 2.41 136 2.41 211 2.41  30 3.16  23 3.16
                            12 3.16  71 3.16  72 3.16  53 3.16
   6  0.733  0.867  0.500- 110 2.41  89 2.41 119 2.41  76 2.41 116 2.41 100 2.41  67 3.16  49 3.16
                            46 3.16  22 3.16  30 3.16  34 3.16
   7  0.667  0.933  0.330- 105 2.41 202 2.41  94 2.41 107 2.41 199 2.41  97 2.41  29 3.16  11 3.16
                            33 3.16  26 3.16  63 3.16  16 3.16
   8  0.667  0.933  0.670- 106 2.41 200 2.41  96 2.41 134 2.41 108 2.41  93 2.41  28 3.16   2 3.16
                            32 3.16  27 3.16  64 3.16  17 3.16
   9  0.267  0.733  0.670- 157 2.41 216 2.41 210 2.41 137 2.41 219 2.41 213 2.41  51 3.16   3 3.16
                            56 3.16  28 3.16  13 3.16  32 3.16
  10  0.267  0.733  0.330- 145 2.41 218 2.41 212 2.41 215 2.41 158 2.41 209 2.41  52 3.16   4 3.16
                            57 3.16  29 3.16  14 3.16  33 3.16
  11  0.667  0.733  0.330- 196 2.41 105 2.41 115 2.41 193 2.41 107 2.41 118 2.41  33 3.16   7 3.16
                            38 3.16  63 3.16  41 3.16  69 3.16
  12  0.333  0.667  0.500- 192 2.41 179 2.41 208 2.41 205 2.41 195 2.41 211 2.41  34 3.16  15 3.16
                            30 3.16  59 3.16  53 3.16   5 3.16
  13  0.267  0.533  0.670- 181 2.41 173 2.41 210 2.41 207 2.41 176 2.41 213 2.41  56 3.16  18 3.16
                            60 3.16   9 3.16  37 3.16  32 3.16
  14  0.267  0.533  0.330- 206 2.41 175 2.41 212 2.41 180 2.41 209 2.41 172 2.41  57 3.16  19 3.16
                            61 3.16  10 3.16  38 3.16  33 3.16
  15  0.333  0.467  0.500- 179 2.41 186 2.41 150 2.41 205 2.41 189 2.41 153 2.41  39 3.16  12 3.16
                            34 3.16  20 3.16  59 3.16  62 3.16
  16  0.867  0.133  0.330-  90 2.41  94 2.41 124 2.41 132 2.41  97 2.41 102 2.41  63 3.16  66 3.16
                            26 3.16  47 3.16   7 3.16  61 3.16
  17  0.867  0.133  0.670- 104 2.41  96 2.41  88 2.41  91 2.41  93 2.41 122 2.41  64 3.16  65 3.16
                            27 3.16  48 3.16   8 3.16  60 3.16
  18  0.267  0.333  0.670- 167 2.41 181 2.41 152 2.41 170 2.41 207 2.41 178 2.41  60 3.16  13 3.16
                            65 3.16  37 3.16  43 3.16  50 3.16
  19  0.267  0.333  0.330- 169 2.41 206 2.41 154 2.41 180 2.41 166 2.41 151 2.41  61 3.16  14 3.16
                            66 3.16  38 3.16  44 3.16  70 3.16
  20  0.333  0.267  0.500- 203 2.41 144 2.41 150 2.41 183 2.41 147 2.41 153 2.41  45 3.16  71 3.16
                            39 3.16   1 3.16  62 3.16  15 3.16
  21  0.933  0.267  0.500- 123 2.41 131 2.41 165 2.41  81 2.41  80 2.41 168 2.41  31 3.16  49 3.16
                            22 3.16  62 3.16  73 3.16  59 3.16
  22  0.733  0.067  0.500- 101 2.41 131 2.41 110 2.41  95 2.41  80 2.41  76 2.41  49 3.16  31 3.16
                            21 3.16   6 3.16  23 3.16  30 3.16
  23  0.533  0.067  0.500- 220 2.41 101 2.41 198 2.41 223 2.41  95 2.41 136 2.41  71 3.16  45 3.16
                             5 3.16  31 3.16  30 3.16  22 3.16
  24  0.467  0.133  0.330- 204 2.41 148 2.41 184 2.41 221 2.41 146 2.41 201 2.41  26 3.16  35 3.16
                            29 3.16  44 3.16  70 3.16   4 3.16
  25  0.467  0.133  0.670- 222 2.41 155 2.41 182 2.41 224 2.41 149 2.41 185 2.41  27 3.16  36 3.16
                            28 3.16  43 3.16  50 3.16   3 3.16
  26  0.667  0.133  0.330-  94 2.41 204 2.41  84 2.41  97 2.41  78 2.41 221 2.41  24 3.16  29 3.16
                             7 3.16  16 3.16  35 3.16  47 3.16
  27  0.667  0.133  0.670-  96 2.41 222 2.41  79 2.41  93 2.41 224 2.41  85 2.41  25 3.16  28 3.16
                             8 3.16  17 3.16  36 3.16  48 3.16
  28  0.467  0.933  0.670- 200 2.41 216 2.41 222 2.41 134 2.41 219 2.41 224 2.41   8 3.16  32 3.16
                            27 3.16   9 3.16   3 3.16  25 3.16
  29  0.467  0.933  0.330- 202 2.41 218 2.41 204 2.41 199 2.41 215 2.41 221 2.41   7 3.16  33 3.16
                            26 3.16  10 3.16   4 3.16  24 3.16
  30  0.533  0.867  0.500- 198 2.41 110 2.41 192 2.41 136 2.41 195 2.41  76 2.41   5 3.16  12 3.16
                             6 3.16  23 3.16  34 3.16  22 3.16
  31  0.733  0.267  0.500- 123 2.41 101 2.41  77 2.41  81 2.41  95 2.41  87 2.41  21 3.16  22 3.16
                            73 3.16  23 3.16  45 3.16  40 3.16
  32  0.467  0.733  0.670- 194 2.41 210 2.41 200 2.41 197 2.41 213 2.41 134 2.41   2 3.16  28 3.16
                             8 3.16   9 3.16  37 3.16  13 3.16
  33  0.467  0.733  0.330- 196 2.41 212 2.41 202 2.41 193 2.41 209 2.41 199 2.41  11 3.16  29 3.16
                             7 3.16  10 3.16  38 3.16  14 3.16
  34  0.533  0.667  0.500- 192 2.41 119 2.41 186 2.41 195 2.41 116 2.41 189 2.41  12 3.16  39 3.16
                            15 3.16  30 3.16  46 3.16   6 3.16
  35  0.667  0.333  0.330- 184 2.41 127 2.41  84 2.41 130 2.41 201 2.41  78 2.41  44 3.16  41 3.16
                            24 3.16  68 3.16  47 3.16  26 3.16
  36  0.667  0.333  0.670- 182 2.41 129 2.41  79 2.41 185 2.41 126 2.41  85 2.41  43 3.16  42 3.16
                            25 3.16  58 3.16  48 3.16  27 3.16
  37  0.467  0.533  0.670- 188 2.41 181 2.41 194 2.41 191 2.41 207 2.41 197 2.41  42 3.16  43 3.16
                             2 3.16  18 3.16  13 3.16  32 3.16
  38  0.467  0.533  0.330- 190 2.41 206 2.41 196 2.41 135 2.41 180 2.41 193 2.41  41 3.16  44 3.16
                            11 3.16  19 3.16  14 3.16  33 3.16
  39  0.533  0.467  0.500- 186 2.41 133 2.41 203 2.41 189 2.41 183 2.41 128 2.41  15 3.16  34 3.16
                            20 3.16  46 3.16  45 3.16  40 3.16
  40  0.733  0.467  0.500- 133 2.41 109 2.41  77 2.41 128 2.41  87 2.41 113 2.41  73 3.16  46 3.16
                            54 3.16  39 3.16  31 3.16  45 3.16
  41  0.667  0.533  0.330- 127 2.41 190 2.41 115 2.41 130 2.41 135 2.41 118 2.41  38 3.16  35 3.16
                            44 3.16  11 3.16  68 3.16  69 3.16
  42  0.667  0.533  0.670- 129 2.41 188 2.41 117 2.41 126 2.41 191 2.41 114 2.41  37 3.16  36 3.16
                            43 3.16   2 3.16  58 3.16  55 3.16
  43  0.467  0.333  0.670- 182 2.41 152 2.41 188 2.41 185 2.41 178 2.41 191 2.41  36 3.16  37 3.16
                            42 3.16  25 3.16  18 3.16  50 3.16
  44  0.467  0.333  0.330- 184 2.41 154 2.41 190 2.41 201 2.41 135 2.41 151 2.41  35 3.16  38 3.16
[...]
  312        chggra                                0.067507                            1   3
  313          fft3d_mpi                             0.046900                          3   4
  314            fftbrc_mpi                            0.044169                        3   5
  315              fftbas_plan_mpi                       0.044162                      3   6
  316                dfftw_execute                         0.011768                    9   7
  317                map_backward                          0.013063                    2   7
  318                  map_gather                            0.001183                  1   8
  319                  m_alltoallv_z                         0.004503                  1   8
  320                  map_scatter                           0.007343                  1   8
  321                map_forward                           0.017427                    4   7
  322                  map_gather                            0.008980                  2   8
  323                  m_alltoallv_z                         0.006305                  2   8
  324                  map_scatter                           0.002096                  2   8
  325          m_sumb_d                              0.000096                          2   4
  326          pothar                                0.004765                          1   4
  327            m_sumb_d                              0.000737                        1   5
  328        brmix                                 0.149145                            1   3
  329          m_sumb_d                              0.001447                          6   4
  330          brpre                                 0.000471                          2   4
  331          setg0                                 0.009339                          1   4
  332          broyd                                 0.100128                          1   4
  333            m_sumb_d                              0.006358                       41   5
  334            brget                                 0.017225                      213   5
  335            brsav                                 0.005623                       39   5
  336          m_bcast_z                             0.023841                          1   4
  337          m_bcast_d                             0.000209                          1   4
  338        m_bcast_d                             0.001152                            2   3
  339      potlok                               10.356319                              1   2
  340        fft3d_mpi                             1.379045                           86   3
  341          fftbrc_mpi                            1.303734                         86   4
  342            fftbas_plan_mpi                       1.303499                       86   5
  343              dfftw_execute                         0.332338                    258   6
  344              map_forward                           0.359684                     88   6
  345                map_gather                            0.131356                   46   7
  346                m_alltoallv_z                         0.179929                   46   7
  347                map_scatter                           0.047434                   46   7
  348              map_backward                          0.559240                     84   6
  349                map_gather                            0.038460                   42   7
  350                m_alltoallv_z                         0.252501                   42   7
  351                map_scatter                           0.267366                   42   7
  352        m_sumb_d                              0.001787                            8   3
  353        fewald                                0.001588                            2   3
  354          rsp                                   0.001453                          2   4
  355          rcp                                   0.000091                          2   4
  356        pothar                                0.003661                            1   3
  357          m_sumb_d                              0.001137                          1   4
  358        m_bcast_d                             0.004973                            2   3
  359      potlok_metagga                        0.000007                              1   2
  360      set_dd_magatom                        0.000001                              1   2
  361      set_dd_paw                            2.863857                              1   2
  362        set_rsgf_all                          0.000002                            1   3
  363        m_sumb_d                              2.863344                            8   3
  364      densta                                0.003489                              1   2
  365        m_sumb_d                              0.001360                           11   3

 Flat profile

 ggemm                                3488.938412       49703
 orth1                                 859.223632      111517
 eddav                                 825.616600          39
 dfftw_execute                         539.667263      676677
 m_alltoallv_z                         390.943596      225701
 potlok                                322.758569          36
 total_time                            305.026569           1
 m_sumb_d                              244.298951      422550
 m_alltoall_d                          185.824050      545891
 lincom                                142.986207          80
 map_scatter                           141.569378      225701
 fftwav_mpi                            138.787569      148288
 map_gather                            137.538049      225701
 fftbas_plan_mpi                       119.985521      225559
 set_charge                            102.430919          35
 vhamil                                 98.627780       73949
 map_forward                            84.328869      299830
 crrexp_mul_work_add                    59.681008    16638525
 gemm                                   56.372898     8280900
 m_bcast_z                              54.959073       46852
 rpromu_gemm                            41.535660     5946750
 racc0mu                                35.861225       36804
 crrexp_mul_wave                        32.124484    12882825
 rpromu                                 26.905958       26430
 lapack                                 23.835042       37145
 eccp                                   21.264384       25038
 w1_copy                                20.843645      221847
 redis_pw                               19.654205      196969
 fftext_mpi                             15.603704       73949
 pw_charge                              15.020698       17082
 force_and_stress                        8.956028           1
 kinhamil                                6.956405       73949
 apply_precond                           5.930843       48911
 augmentation_charge                     4.346461          35
 setup_precond                           4.321751       25038
 overl                                   4.260756      122862
 fft3d_mpi                               3.781430      225559
 m_bcast_d                               3.751419       74403
 redis_proj                              3.381921      245882
 setdij_                                 3.215802          63
 forhar                                  2.278118           2
 overl1                                  2.064176       73949
 map_backward                            1.678149      151288
 forloc                                  1.123508           1
 hamiltmu                                1.065967       37145
 newband                                 0.975880       37223
 broyd                                   0.911539          35
 phaser                                  0.855564          91
 stufak                                  0.716389           1
 fftbas_mpi                              0.698540      222237
 brmix                                   0.567351          35
 choleski                                0.519543           2
 elmin                                   0.511201           1
 inisym                                  0.477925           1
 rspher_all                              0.460788          14
 racc0                                   0.460207         341
 raccmu_                                 0.447853       37145
 soft_charge                             0.423532          35
 setg0                                   0.381983          37
 rpro1                                   0.365635         263
 depsum                                  0.328001          35
 brget                                   0.276680        3528
 w1_projall                              0.161260       24587
 brsav                                   0.111749         776
 strnlr                                  0.106595           1
 pothar                                  0.102933          37
 densta                                  0.100220          40
 truncate_high_frequency_w1              0.094551       98987
 rsp                                     0.062448          73
 posmap                                  0.061581           2
 strkin                                  0.060277           1
 rpro_isp                                0.057865          13
 fornlr                                  0.041912           1
 orthch                                  0.028781           1
 set_dd_paw                              0.020486          37
 strehar                                 0.018853           1
 strelo                                  0.018619           1
 fft_gq                                  0.016198          35
 chggra                                  0.015745           1
 brpre                                   0.015351          70
 fftbrc_mpi                              0.009818        3322
 fewald                                  0.008319          73
 rcp                                     0.007828          73
 brgrid                                  0.002116           1
 vectorpot                               0.000567          36
 potlok_metagga                          0.000361          36
 fordep                                  0.000298           1
 crpa_reader                             0.000274           1
 set_rsgf_all                            0.000113          37
 proall                                  0.000063           1
 set_dd_magatom                          0.000058          37
 rotate_active_occupied_orbital          0.000018           1
 redis_pw_over_bands                     0.000000           1
  summed up times    8619.83051705360

 Accumulative profile

 total_time                           8619.830517           1
 elmin                                8144.519697           1
 eddav                                7438.596277          39
 ggemm                                3488.938412       49703
 fft3d_mpi                            1420.200611      225559
 fftbas_plan_mpi                      1415.710824      225559
 fftbas_mpi                           1365.862478      222237
 fftwav_mpi                           1138.207034      148288
 orth1                                 859.223632      111517
 hamiltmu                              662.330477       37145
 map_forward                           584.564598      299830
 dfftw_execute                         539.667263      676677
 m_alltoallv_z                         390.943596      225701
 kinhamil                              389.950959       73949
 fftext_mpi                            382.994554       73949
 potlok                                373.746644          36
 m_sumb_d                              244.298951      422550
 set_charge                            242.510718          35
 newband                               229.776499       37223
 m_alltoall_d                          185.824050      545891
 raccmu_                               172.685771       37145
 map_backward                          171.493442      151288
 racc0mu                               169.295785       36804
 redis_pw                              146.854475      196969
 lincom                                142.986207          80
 map_scatter                           141.569378      225701
 map_gather                            137.538049      225701
 soft_charge                           129.123483          35
 rpromu                                112.173799       26430
 set_dd_paw                            105.763465          37
 w1_projall                             98.935286       24587
 vhamil                                 98.627780       73949
 force_and_stress                       90.237874           1
 rpro_isp                               69.166290          13
 redis_proj                             62.005701      245882
 crrexp_mul_work_add                    59.681008    16638525
 gemm                                   56.372898     8280900
 m_bcast_z                              54.959073       46852
 fftbrc_mpi                             50.556704        3322
 strnlr                                 48.706946           1
 rpromu_gemm                            41.535660     5946750
 crrexp_mul_wave                        32.124484    12882825
 eccp                                   25.521589       25038
 lapack                                 23.835042       37145
 w1_copy                                20.843645      221847
 fornlr                                 16.242289           1
 pw_charge                              15.020698       17082
 apply_precond                           5.930843       48911
 augmentation_charge                     5.803868          35
 orthch                                  5.659661           1
 proall                                  5.370650           1
 setup_precond                           4.949569       25038
 overl                                   4.260756      122862
 m_bcast_d                               3.751419       74403
 setdij_                                 3.482587          63
 brmix                                   2.961312          35
 forhar                                  2.303534           2
 overl1                                  2.064176       73949
 depsum                                  1.542799          35
 densta                                  1.542687          40
 broyd                                   1.450523          35
 forloc                                  1.127481           1
 racc0                                   0.877957         341
 phaser                                  0.855564          91
 stufak                                  0.716389           1
 rpro1                                   0.601188         263
 inisym                                  0.539506           1
 choleski                                0.519543           2
 fewald                                  0.493755          73
 rspher_all                              0.460788          14
 setg0                                   0.381983          37
 fft_gq                                  0.368128          35
 fordep                                  0.327180           1
 brget                                   0.276680        3528
 pothar                                  0.160795          37
 brsav                                   0.111749         776
 truncate_high_frequency_w1              0.094551       98987
 chggra                                  0.067507           1
 strkin                                  0.062829           1
 rsp                                     0.062448          73
 posmap                                  0.061581           2
 strelo                                  0.020239           1
 strehar                                 0.019192           1
 brpre                                   0.015351          70
 rcp                                     0.007828          73
 brgrid                                  0.002116           1
 vectorpot                               0.000567          36
 potlok_metagga                          0.000361          36
 crpa_reader                             0.000274           1
 set_rsgf_all                            0.000113          37
 set_dd_magatom                          0.000058          37
 rotate_active_occupied_orbital          0.000018           1
 redis_pw_over_bands                     0.000000           1

Profiling took  23.823316 14.302488  0.009114  0.008350 seconds
Profiling took  22.692627 seconds