 vasp.6.3.2 27Jun22 (build Jan 03 2024 23:05:41) complex

 executed on           IFC15_impi date 2024.07.31  01:43:05

 INCAR:
   ENCUT = 600.00
   EDIFF = 1.00e-06
   EDIFFG = -0.01
   IBRION = 2
   ALGO = Normal
   ISMEAR = 0
   SIGMA = 0.05
   LCHARG = .FALSE.
   LWAVE = .FALSE.
   LREAL = Auto
   NELM = 2000
   NSW = 5000
   NCORE = 16
   KPAR = 8
   ISPIN = 2
   GGA = MK
   PARAM1 = 0.1234
   PARAM2 = 1.0
   AGGAC = 0.0
   LUSE_VDW = .TRUE.
   LASPH = .TRUE.
   LDIPOL = .TRUE.
   DIPOL = 0.5 0.5 0.5
   IDIPOL = 3

 POTCAR:    PAW_PBE Mo_sv 02Feb2006
 POTCAR:    PAW_PBE S 06Sep2000
|           W    W    AA    RRRRR   N    N  II  N    N   GGGG   !!!           |
|           W    W   A  A   R    R  NN   N  II  NN   N  G    G  !!!           |
|           W    W  A    A  R    R  N N  N  II  N N  N  G       !!!           |
|           W WW W  AAAAAA  RRRRR   N  N N  II  N  N N  G  GGG   !            |
|           WW  WW  A    A  R   R   N   NN  II  N   NN  G    G                |
|           W    W  A    A  R    R  N    N  II  N    N   GGGG   !!!           |
|     You use a magnetic or noncollinear calculation, but did not specify     |
|     the initial magnetic moment with the MAGMOM tag. Note that a            |
|     default of 1 will be used for all atoms. This ferromagnetic setup       |
|     may break the symmetry of the crystal, in particular it may rule        |
|     out finding an antiferromagnetic solution. Thence, we recommend         |
|     setting the initial magnetic moment manually or verifying carefully     |
|     that this magnetic setup is desired.                                    |

   TITEL  = PAW_PBE Mo_sv 02Feb2006
   POMASS =   95.940; ZVAL   =   14.000    mass and valenz
   ENMAX  =  242.676; ENMIN  =  182.007 eV

   TITEL  = PAW_PBE S 06Sep2000
   POMASS =   32.066; ZVAL   =    6.000    mass and valenz
   ENMAX  =  258.689; ENMIN  =  194.016 eV

 Optimization of the real space projectors (new method)

 maximal supplied QI-value         = 15.12
 optimisation between [QCUT,QGAM] = [ 12.55, 25.10] = [ 44.09,176.36] Ry
 Optimized for a Real-space Cutoff    1.47 Angstroem

   l    n(q)    QCUT    max X(q) W(low)/X(q) W(high)/X(q)  e(spline)
   0     11    12.548     3.559    0.18E-04    0.60E-05    0.19E-06
   0     11    12.548    20.730    0.37E-04    0.13E-04    0.98E-07
   1     11    12.548     3.279    0.80E-06    0.70E-06    0.27E-07
   1     11    12.548     4.693    0.72E-04    0.11E-03    0.38E-06
   2     10    12.548    67.616    0.34E-03    0.45E-03    0.54E-06
   2     10    12.548    62.420    0.34E-03    0.45E-03    0.54E-06
 Optimization of the real space projectors (new method)

 maximal supplied QI-value         = 19.84
 optimisation between [QCUT,QGAM] = [ 12.50, 25.00] = [ 43.76,175.03] Ry
 Optimized for a Real-space Cutoff    1.06 Angstroem

   l    n(q)    QCUT    max X(q) W(low)/X(q) W(high)/X(q)  e(spline)
   0      8    12.501   187.594    0.26E-03    0.17E-03    0.97E-07
   0      8    12.501   164.243    0.26E-03    0.17E-03    0.96E-07
   1      7    12.501    67.533    0.50E-03    0.61E-03    0.91E-07
   1      7    12.501    50.729    0.48E-03    0.60E-03    0.90E-07
|               ----> ADVICE to this user running VASP <----                  |
|     You enforced a specific xc type in the INCAR file but a different       |
|     type was found in the POTCAR file.                                      |
|     I HOPE YOU KNOW WHAT YOU ARE DOING!                                     |

  PAW_PBE Mo_sv 02Feb2006               :
  PAW_PBE S 06Sep2000                   :

 POSCAR: Mo S
  positions in cartesian coordinates
 exchange correlation table for  LEXCH =       43
   RHO(1)=    0.500       N(1)  =     2000
   RHO(2)=  100.500       N(2)  =     4000

 VTST: version 4.1, (05/19/21)

 CHAIN: initializing optimizer

 OPT: Using VASP Conjugate-Gradient optimizer
 CHAIN: Read ICHAIN            0

 POSCAR: Mo S
  positions in cartesian coordinates

 ion  position               nearest neighbor table
   1  0.667  0.733  0.500-  36 2.41  64 2.41  40 2.41  37 2.41  65 2.41  39 2.41  11 3.16   3 3.16
                            13 3.16  23 3.16  19 3.16  14 3.16
   2  0.267  0.933  0.500-  70 2.41  47 2.41  51 2.41  71 2.41  48 2.41  49 2.41  25 3.16   4 3.16
                            18 3.16  10 3.16  17 3.16   8 3.16
   3  0.667  0.933  0.500-  36 2.41  66 2.41  33 2.41  37 2.41  45 2.41  32 2.41  10 3.16   1 3.16
                            11 3.16   9 3.16  23 3.16   6 3.16
   4  0.267  0.733  0.500-  52 2.41  70 2.41  68 2.41  46 2.41  71 2.41  69 2.41  18 3.16   2 3.16
                            20 3.16  10 3.16   5 3.16  11 3.16
   5  0.267  0.533  0.500-  60 2.41  57 2.41  68 2.41  67 2.41  58 2.41  69 2.41  20 3.16   7 3.16
                            22 3.16   4 3.16  13 3.16  11 3.16
   6  0.867  0.133  0.500-  35 2.41  33 2.41  29 2.41  30 2.41  32 2.41  42 2.41  23 3.16  24 3.16
                             9 3.16  16 3.16   3 3.16  22 3.16
   7  0.267  0.333  0.500-  55 2.41  60 2.41  50 2.41  56 2.41  67 2.41  59 2.41  22 3.16   5 3.16
                            24 3.16  13 3.16  15 3.16  17 3.16
   8  0.467  0.133  0.500-  72 2.41  61 2.41  51 2.41  73 2.41  49 2.41  62 2.41   9 3.16  12 3.16
                            10 3.16  15 3.16  17 3.16   2 3.16
   9  0.667  0.133  0.500-  33 2.41  26 2.41  72 2.41  32 2.41  28 2.41  73 2.41   8 3.16  10 3.16
                             3 3.16   6 3.16  12 3.16  16 3.16
  10  0.467  0.933  0.500-  66 2.41  70 2.41  72 2.41  45 2.41  71 2.41  73 2.41   3 3.16  11 3.16
                             9 3.16   4 3.16   2 3.16   8 3.16
  11  0.467  0.733  0.500-  64 2.41  66 2.41  68 2.41  65 2.41  45 2.41  69 2.41   1 3.16  10 3.16
                             3 3.16   4 3.16  13 3.16   5 3.16
  12  0.667  0.333  0.500-  44 2.41  61 2.41  26 2.41  43 2.41  62 2.41  28 2.41  15 3.16  14 3.16
                             8 3.16  21 3.16  16 3.16   9 3.16
  13  0.467  0.533  0.500-  60 2.41  64 2.41  63 2.41  65 2.41  67 2.41  14 3.16  15 3.16   1 3.16
                             7 3.16  11 3.16   5 3.16
  14  0.667  0.533  0.500-  44 2.41  40 2.41  43 2.41  39 2.41  63 2.41  13 3.16  12 3.16  15 3.16
                            21 3.16   1 3.16  19 3.16
  15  0.467  0.333  0.500-  61 2.41  50 2.41  62 2.41  59 2.41  63 2.41  12 3.16  13 3.16  14 3.16
                             7 3.16   8 3.16  17 3.16
  16  0.867  0.333  0.500-  29 2.41  26 2.41  38 2.41  42 2.41  41 2.41  28 2.41  21 3.16  20 3.16
                             6 3.16  12 3.16  22 3.16   9 3.16
  17  0.267  0.133  0.500-  51 2.41  50 2.41  53 2.41  49 2.41  54 2.41  59 2.41  24 3.16  25 3.16
                             8 3.16   2 3.16   7 3.16  15 3.16
  18  0.067  0.733  0.500-  52 2.41  47 2.41  31 2.41  46 2.41  48 2.41  27 2.41   4 3.16  25 3.16
                             2 3.16  20 3.16  19 3.16  21 3.16
  19  0.867  0.733  0.500-  31 2.41  34 2.41  40 2.41  27 2.41  39 2.41  74 2.41  23 3.16  25 3.16
                            21 3.16   1 3.16  18 3.16  14 3.16
  20  0.067  0.533  0.500-  57 2.41  52 2.41  38 2.41  58 2.41  46 2.41  41 2.41   5 3.16  22 3.16
                             4 3.16  16 3.16  21 3.16  18 3.16
  21  0.867  0.533  0.500-  38 2.41  31 2.41  44 2.41  41 2.41  43 2.41  27 2.41  16 3.16  12 3.16
                            14 3.16  19 3.16  20 3.16  18 3.16
  22  0.067  0.333  0.500-  55 2.41  57 2.41  29 2.41  56 2.41  58 2.41  42 2.41   7 3.16  20 3.16
                             5 3.16  16 3.16  24 3.16   6 3.16
  23  0.867  0.933  0.500-  34 2.41  36 2.41  35 2.41  74 2.41  37 2.41  30 2.41  19 3.16   1 3.16
                             6 3.16   3 3.16  25 3.16  24 3.16
  24  0.067  0.133  0.500-  53 2.41  55 2.41  35 2.41  54 2.41  56 2.41  30 2.41  17 3.16   7 3.16
                             6 3.16  22 3.16  25 3.16  23 3.16
  25  0.067  0.933  0.500-  47 2.41  34 2.41  53 2.41  48 2.41  74 2.41  54 2.41   2 3.16  18 3.16
                            17 3.16  19 3.16  23 3.16  24 3.16
  26  0.733  0.267  0.568-   9 2.41  16 2.41  12 2.41
  27  0.933  0.667  0.432-  19 2.41  21 2.41  18 2.41
  28  0.733  0.267  0.432-   9 2.41  16 2.41  12 2.41
  29  0.933  0.267  0.568-  16 2.41   6 2.41  22 2.41
  30  0.933  0.067  0.432-   6 2.41  24 2.41  23 2.41
  31  0.933  0.667  0.568-  19 2.41  21 2.41  18 2.41
  32  0.733  0.067  0.432-   9 2.41   6 2.41   3 2.41
  33  0.733  0.067  0.568-   9 2.41   6 2.41   3 2.41
  34  0.933  0.867  0.568-  23 2.41  19 2.41  25 2.41
  35  0.933  0.067  0.568-   6 2.41  24 2.41  23 2.41
  36  0.733  0.867  0.568-   3 2.41   1 2.41  23 2.41
  37  0.733  0.867  0.432-   3 2.41   1 2.41  23 2.41
  38  0.933  0.467  0.568-  21 2.41  16 2.41  20 2.41
  39  0.733  0.667  0.432-  14 2.41  19 2.41   1 2.41
  40  0.733  0.667  0.568-  14 2.41  19 2.41   1 2.41
  41  0.933  0.467  0.432-  21 2.41  16 2.41  20 2.41
  42  0.933  0.267  0.432-  16 2.41   6 2.41  22 2.41
  43  0.733  0.467  0.432-  14 2.41  12 2.41  21 2.41
  44  0.733  0.467  0.568-  14 2.41  12 2.41  21 2.41
  45  0.533  0.867  0.432-  10 2.41   3 2.41  11 2.41
  46  0.133  0.667  0.432-  18 2.41   4 2.41  20 2.41
  47  0.133  0.867  0.568-  25 2.41  18 2.41   2 2.41
  48  0.133  0.867  0.432-  25 2.41  18 2.41   2 2.41
  49  0.333  0.067  0.432-  17 2.41   8 2.41   2 2.41
  50  0.333  0.267  0.568-  15 2.41  17 2.41   7 2.41
  51  0.333  0.067  0.568-  17 2.41   8 2.41   2 2.41
  52  0.133  0.667  0.568-  18 2.41   4 2.41  20 2.41
  53  0.133  0.067  0.568-  24 2.41  17 2.41  25 2.41
  54  0.133  0.067  0.432-  24 2.41  17 2.41  25 2.41
  55  0.133  0.267  0.568-  22 2.41   7 2.41  24 2.41
  56  0.133  0.267  0.432-  22 2.41   7 2.41  24 2.41
  57  0.133  0.467  0.568-  20 2.41   5 2.41  22 2.41
  58  0.133  0.467  0.432-  20 2.41   5 2.41  22 2.41
  59  0.333  0.267  0.432-  15 2.41  17 2.41   7 2.41
  60  0.333  0.467  0.568-   5 2.41   7 2.41  13 2.41
  61  0.533  0.267  0.568-  15 2.41  12 2.41   8 2.41
  62  0.533  0.267  0.432-  15 2.41  12 2.41   8 2.41
  63  0.533  0.467  0.432-  13 2.41  14 2.41  15 2.41
  64  0.533  0.667  0.568-  11 2.41   1 2.41  13 2.41
  65  0.533  0.667  0.432-  11 2.41   1 2.41  13 2.41
  66  0.533  0.867  0.568-  10 2.41   3 2.41  11 2.41
  67  0.333  0.467  0.432-   5 2.41   7 2.41  13 2.41
  68  0.333  0.667  0.568-   5 2.41  11 2.41   4 2.41
  69  0.333  0.667  0.432-   5 2.41  11 2.41   4 2.41
  70  0.333  0.867  0.568-   2 2.41   4 2.41  10 2.41
  71  0.333  0.867  0.432-   2 2.41   4 2.41  10 2.41
  72  0.533  0.067  0.568-   8 2.41   9 2.41  10 2.41
  73  0.533  0.067  0.432-   8 2.41   9 2.41  10 2.41
  74  0.933  0.867  0.432-  23 2.41  19 2.41  25 2.41

  LATTYP: Found a hexagonal cell.
 ALAT       =    15.8227970706
 C/A-ratio  =     1.4623157837

  Lattice vectors:

 A1 = (   7.9113985353, -13.7029442220,   0.0000000000)
 A2 = (   7.9113985353,  13.7029442220,   0.0000000000)
 A3 = (   0.0000000000,   0.0000000000,  23.1379258980)

Analysis of symmetry for initial positions (statically):
 Subroutine PRICEL returns:
 Original cell was already a primitive cell.

 Routine SETGRP: Setting up the symmetry group for a
 hexagonal supercell.

[...]
  313            fftbrc_mpi                            0.564965                       87   5
  314              fftbas_plan_mpi                       0.564672                     87   6
  315                dfftw_execute                         0.128568                  261   7
  316                map_backward                          0.122542                   58   7
  317                  map_gather                            0.021222                 29   8
  318                  m_alltoallv_z                         0.077475                 29   8
  319                  map_scatter                           0.023158                 29   8
  320                map_forward                           0.259662                  116   7
  321                  map_gather                            0.043461                 58   8
  322                  m_alltoallv_z                         0.176007                 58   8
  323                  map_scatter                           0.038929                 58   8
  324          m_sumb_d                              0.003568                         58   4
  325          pothar                                0.053602                         29   4
  326            m_sumb_d                              0.012630                       29   5
  327        brmix                                10.955528                           29   3
  328          m_sumb_d                              0.071946                        174   4
  329          brpre                                 0.010286                         58   4
  330          setg0                                 0.132194                         29   4
  331          broyd                                 0.281246                         29   4
  332            m_sumb_d                              0.055994                      414   5
  333            brget                                 0.063196                     1353   5
  334            brsav                                 0.024575                      361   5
  335          m_bcast_z                            10.280769                         29   4
  336        m_bcast_d                             0.021969                           58   3
  337      potlok                              127.368150                             29   2
  338        fft3d_mpi                            18.094424                         2494   3
  339          fftbrc_mpi                           17.087716                       2494   4
  340            fftbas_plan_mpi                      17.079327                     2494   5
  341              dfftw_execute                         3.864925                   7482   6
  342              map_forward                           5.848005                   2552   6
  343                map_gather                            0.649899                 1334   7
  344                m_alltoallv_z                         4.375282                 1334   7
  345                map_scatter                           0.796129                 1334   7
  346              map_backward                          5.816788                   2436   6
  347                map_gather                            0.807592                 1218   7
  348                m_alltoallv_z                         4.078534                 1218   7
  349                map_scatter                           0.904715                 1218   7
  350        m_sumb_d                              0.233021                          232   3
  351        fewald                                0.040290                           58   3
  352          rsp                                   0.036796                         58   4
  353          rcp                                   0.002591                         58   4
  354        pothar                                0.055050                           29   3
  355          m_sumb_d                              0.011967                         29   4
  356        m_bcast_d                             0.139417                           58   3
  357      potlok_metagga                        0.000103                             29   2
  358      set_dd_magatom                        0.000027                             29   2
  359      set_dd_paw                           81.300356                             29   2
  360        set_rsgf_all                          0.000043                           29   3
  361        m_sumb_d                             81.292159                          232   3
  362      wavpre_noio                           3.127177                             28   2
  363        stufak                                2.762177                           28   3
  364      densta                                0.001658                              1   2
  365        m_sumb_d                              0.001075                           10   3

 Flat profile

 ggemm                                1527.170115       72093
 m_sumb_d                             1046.126928      663622
 potlok                               1016.596681         270
 dfftw_execute                         603.886660     1174398
 m_alltoallv_z                         385.957683      392488
 eddav                                 323.285972         245
 orth1                                 298.283072      164229
 m_alltoall_d                          288.827610      802084
 set_charge                            263.139400         241
 fftbas_plan_mpi                       211.134111      391466
 fftwav_mpi                            204.344936      258116
 map_scatter                           155.876585      392488
 map_gather                            142.346504      392488
 vhamil                                127.608778      106672
 map_forward                           122.083443      542486
 force_and_stress                      108.687216          29
 total_time                             89.261247           1
 lapack                                 58.234507       54453
 lincom                                 50.891984         548
 rpromu_gemm                            31.354858     3599434
 m_bcast_z                              30.334543       57980
 crrexp_mul_work_add                    30.174892     7893728
 gemm                                   27.790185     3864206
 crrexp_mul_wave                        25.818920     9280784
 eccp                                   25.203878       34790
 w1_copy                                22.052928      320016
 rpromu                                 20.066285       48641
 pw_charge                              19.019444       26028
 racc0mu                                18.188394       52219
 redis_pw                               16.686158      286322
 setdij_                                16.564803        1025
 fftext_mpi                             13.267550      106672
 fft3d_mpi                              12.032184      391466
 forhar                                  9.226152          58
 kinhamil                                8.172107      106672
 apply_precond                           7.697850       71882
 m_bcast_d                               6.877559      109621
 augmentation_charge                     6.724166         241
 elmin                                   4.606945          29
 forloc                                  4.563251          29
 redis_proj                              4.395993      358262
 rspher_all                              4.283966         378
 setup_precond                           4.079525       34790
 overl                                   3.903114      178612
 stufak                                  2.863940          29
 map_backward                            2.653835      240446
 phaser                                  2.617990         867
 overl1                                  2.067244      106672
 hamiltmu                                1.848287       54453
 brmix                                   1.640265         241
 newband                                 1.334934       54943
 fftbas_mpi                              1.219770      364788
 setg0                                   1.146058         299
 racc0                                   1.135928        2234
 choleski                                1.085488          58
 rpro1                                   1.035184        1744
 broyd                                   0.978617         241
 soft_charge                             0.770559         241
 raccmu_                                 0.700974       54453
 rpro_isp                                0.512300         377
 pothar                                  0.441711         299
 brget                                   0.437113        9010
 rsp                                     0.396483         569
 wavpre_noio                             0.365000          28
 strnlr                                  0.315082          29
 strkin                                  0.266127          29
 w1_projall                              0.264646       36813
 chggra                                  0.223922          29
 strehar                                 0.219057          29
 depsum                                  0.202324         241
 strelo                                  0.201029          29
 brsav                                   0.200577        2565
 set_dd_paw                              0.199776         299
 densta                                  0.171489         246
 truncate_high_frequency_w1              0.136121      141462
 fornlr                                  0.099923          29
 orthch                                  0.089530          29
 inisym                                  0.085280           1
 fftbrc_mpi                              0.083373       26678
 fft_gq                                  0.071499         241
 brpre                                   0.067347         482
 rcp                                     0.030591         569
 fewald                                  0.019468         569
 fordep                                  0.006005          29
 vectorpot                               0.003818         242
 potlok_metagga                          0.001136         270
 brgrid                                  0.001035           1
 set_dd_magatom                          0.000553         299
 set_rsgf_all                            0.000551         299
 proall                                  0.000433          29
 posmap                                  0.000336           2
 crpa_reader                             0.000250           1
 rotate_active_occupied_orbital          0.000186          29
 redis_pw_over_bands                     0.000029          29
  summed up times    7425.04225611687

 Accumulative profile

 total_time                           7425.042256           1
 elmin                                6477.835314          29
 eddav                                4294.663659         245
 fft3d_mpi                            1637.274148      391466
 fftbas_plan_mpi                      1623.938821      391466
 ggemm                                1527.170115       72093
 fftbas_mpi                           1439.884133      364788
 fftwav_mpi                           1259.319046      258116
 potlok                               1192.092163         270
 m_sumb_d                             1046.126928      663622
 set_dd_paw                            848.298986         299
 hamiltmu                              633.906235       54453
 dfftw_execute                         603.886660     1174398
 force_and_stress                      595.889582          29
 map_forward                           577.488042      542486
 set_charge                            472.637614         241
 kinhamil                              407.969432      106672
 fftext_mpi                            399.797325      106672
 m_alltoallv_z                         385.957683      392488
 orth1                                 298.283072      164229
 rpro_isp                              289.967841         377
 m_alltoall_d                          288.827610      802084
 newband                               236.516580       54943
 map_backward                          231.430008      240446
 strnlr                                217.581787          29
 redis_pw                              207.046031      286322
 fftbrc_mpi                            185.357831       26678
 map_scatter                           155.876585      392488
 soft_charge                           155.775455         241
 map_gather                            142.346504      392488
 vhamil                                127.608778      106672
 redis_proj                            102.863731      358262
 raccmu_                                96.479737       54453
 racc0mu                                91.254664       52219
 rpromu                                 89.868951       48641
 fornlr                                 72.548369          29
 lapack                                 58.234507       54453
 w1_projall                             57.137555       36813
 lincom                                 50.891984         548
 rpromu_gemm                            31.354858     3599434
 m_bcast_z                              30.334543       57980
 crrexp_mul_work_add                    30.174892     7893728
 eccp                                   28.317650       34790
 gemm                                   27.790185     3864206
 crrexp_mul_wave                        25.818920     9280784
 proall                                 22.528114          29
 w1_copy                                22.052928      320016
 setdij_                                19.111556        1025
 pw_charge                              19.019444       26028
 depsum                                 18.625749         241
 brmix                                  18.114275         241
 orthch                                 14.040252          29
 augmentation_charge                    11.127753         241
 forhar                                  9.344532          58
 apply_precond                           7.697850       71882
 m_bcast_d                               6.877559      109621
 setup_precond                           5.146882       34790
 forloc                                  4.625667          29
 rspher_all                              4.283966         378
 overl                                   3.903114      178612
 fordep                                  3.210410          29
 wavpre_noio                             3.127177          28
 stufak                                  2.863940          29
 phaser                                  2.617990         867
 racc0                                   2.456855        2234
 overl1                                  2.067244      106672
 fft_gq                                  2.023818         241
 broyd                                   2.002165         241
 rpro1                                   1.759052        1744
 setg0                                   1.146058         299
 choleski                                1.085488          58
 chggra                                  0.876050          29
 densta                                  0.725033         246
 pothar                                  0.573345         299
 fewald                                  0.548807         569
 brget                                   0.437113        9010
 rsp                                     0.396483         569
 strkin                                  0.297013          29
 strelo                                  0.273666          29
 strehar                                 0.265474          29
 brsav                                   0.200577        2565
 truncate_high_frequency_w1              0.136121      141462
 inisym                                  0.085616           1
 brpre                                   0.067347         482
 rcp                                     0.030591         569
 vectorpot                               0.003818         242
 potlok_metagga                          0.001136         270
 brgrid                                  0.001035           1
 set_dd_magatom                          0.000553         299
 set_rsgf_all                            0.000551         299
 posmap                                  0.000336           2
 crpa_reader                             0.000250           1
 rotate_active_occupied_orbital          0.000186          29
 redis_pw_over_bands                     0.000029          29

Profiling took  20.532424 10.401539  0.010593  0.009869 seconds
Profiling took  21.020637 seconds