 vasp.6.3.2 27Jun22 (build Jan 03 2024 23:05:41) complex

 executed on           IFC15_impi date 2024.08.05  07:34:11

 INCAR:
   ENCUT = 600.00
   EDIFF = 1.00e-06
   IBRION = -1
   NSW = 0
   ALGO = Normal
   ISMEAR = -5
   LORBIT = 11
   LCHARG = .TRUE.
   LWAVE = .FALSE.
   LREAL = Auto
   NELM = 2000
   NCORE = 16
   KPAR = 8
   ISPIN = 2
   GGA = MK
   PARAM1 = 0.1234
   PARAM2 = 1.0
   AGGAC = 0.0
   LUSE_VDW = .TRUE.
   LASPH = .TRUE.
   LDIPOL = .TRUE.
   DIPOL = 0.5 0.5 0.5
   IDIPOL = 3

 POTCAR:    PAW_PBE Mo_sv 02Feb2006
 POTCAR:    PAW_PBE S 06Sep2000
|           W    W    AA    RRRRR   N    N  II  N    N   GGGG   !!!           |
|           W    W   A  A   R    R  NN   N  II  NN   N  G    G  !!!           |
|           W    W  A    A  R    R  N N  N  II  N N  N  G       !!!           |
|           W WW W  AAAAAA  RRRRR   N  N N  II  N  N N  G  GGG   !            |
|           WW  WW  A    A  R   R   N   NN  II  N   NN  G    G                |
|           W    W  A    A  R    R  N    N  II  N    N   GGGG   !!!           |
|     You use a magnetic or noncollinear calculation, but did not specify     |
|     the initial magnetic moment with the MAGMOM tag. Note that a            |
|     default of 1 will be used for all atoms. This ferromagnetic setup       |
|     may break the symmetry of the crystal, in particular it may rule        |
|     out finding an antiferromagnetic solution. Thence, we recommend         |
|     setting the initial magnetic moment manually or verifying carefully     |
|     that this magnetic setup is desired.                                    |

   TITEL  = PAW_PBE Mo_sv 02Feb2006
   POMASS =   95.940; ZVAL   =   14.000    mass and valenz
   ENMAX  =  242.676; ENMIN  =  182.007 eV

   TITEL  = PAW_PBE S 06Sep2000
   POMASS =   32.066; ZVAL   =    6.000    mass and valenz
   ENMAX  =  258.689; ENMIN  =  194.016 eV

 Optimization of the real space projectors (new method)

 maximal supplied QI-value         = 15.12
 optimisation between [QCUT,QGAM] = [ 12.55, 25.10] = [ 44.09,176.36] Ry
 Optimized for a Real-space Cutoff    1.47 Angstroem

   l    n(q)    QCUT    max X(q) W(low)/X(q) W(high)/X(q)  e(spline)
   0     11    12.548     3.559    0.18E-04    0.60E-05    0.19E-06
   0     11    12.548    20.730    0.37E-04    0.13E-04    0.98E-07
   1     11    12.548     3.279    0.80E-06    0.70E-06    0.27E-07
   1     11    12.548     4.693    0.72E-04    0.11E-03    0.38E-06
   2     10    12.548    67.616    0.34E-03    0.45E-03    0.54E-06
   2     10    12.548    62.420    0.34E-03    0.45E-03    0.54E-06
 Optimization of the real space projectors (new method)

 maximal supplied QI-value         = 19.84
 optimisation between [QCUT,QGAM] = [ 12.50, 25.00] = [ 43.76,175.03] Ry
 Optimized for a Real-space Cutoff    1.06 Angstroem

   l    n(q)    QCUT    max X(q) W(low)/X(q) W(high)/X(q)  e(spline)
   0      8    12.501   187.594    0.26E-03    0.17E-03    0.97E-07
   0      8    12.501   164.243    0.26E-03    0.17E-03    0.96E-07
   1      7    12.501    67.533    0.50E-03    0.61E-03    0.91E-07
   1      7    12.501    50.729    0.48E-03    0.60E-03    0.90E-07
|               ----> ADVICE to this user running VASP <----                  |
|     You enforced a specific xc type in the INCAR file but a different       |
|     type was found in the POTCAR file.                                      |
|     I HOPE YOU KNOW WHAT YOU ARE DOING!                                     |

  PAW_PBE Mo_sv 02Feb2006               :
  PAW_PBE S 06Sep2000                   :

 POSCAR: Mo  S
  positions in direct lattice
  velocities in cartesian coordinates
 exchange correlation table for  LEXCH =       43
   RHO(1)=    0.500       N(1)  =     2000
   RHO(2)=  100.500       N(2)  =     4000

 VTST: version 4.1, (05/19/21)

 CHAIN: initializing optimizer

 OPT: Using VASP Dynamics algorithm
 CHAIN: Read ICHAIN            0

 POSCAR: Mo  S
  positions in direct lattice
  velocities in cartesian coordinates

 ion  position               nearest neighbor table
   1  0.133  0.067  0.500- 144 2.41 141 2.41 162 2.41 138 2.41 159 2.41 147 2.41  49 3.16  62 3.16
                            71 3.16  20 3.16  67 3.16  72 3.16
   2  0.665  0.731  0.669- 193 2.39 117 2.39 196 2.41 114 2.41 108 2.41 106 2.42  37 3.14  42 3.14
                            55 3.16  32 3.16   8 3.19  64 3.19
   3  0.267  0.934  0.671- 149 2.41 140 2.41 215 2.41 218 2.41 143 2.41 155 2.41  74 3.17  28 3.17
                             9 3.17  51 3.17  50 3.17  25 3.17
   4  0.267  0.933  0.330- 148 2.41 217 2.41 142 2.41 146 2.41 214 2.41 139 2.41  10 3.16  52 3.16
                            75 3.16  29 3.16  70 3.16  24 3.16
   5  0.333  0.867  0.500- 197 2.41 216 2.41 210 2.41 136 2.41 213 2.41 207 2.41  72 3.16  53 3.16
                            71 3.16  12 3.16  30 3.16  23 3.16
   6  0.733  0.867  0.500-  76 2.41 100 2.41 119 2.41 110 2.41  89 2.41 116 2.41  34 3.16  46 3.16
                            30 3.16  67 3.16  22 3.16  49 3.16
   7  0.667  0.933  0.330-  94 2.41 201 2.41 105 2.41 198 2.41 107 2.41  97 2.41  11 3.16  29 3.16
                            33 3.16  26 3.16  16 3.16  63 3.16
   8  0.666  0.933  0.670- 134 2.41 199 2.41 106 2.41 108 2.41  96 2.41  93 2.41  28 3.16  64 3.16
                            32 3.17  17 3.17  27 3.18   2 3.19
   9  0.267  0.733  0.671- 212 2.41 157 2.41 215 2.41 137 2.41 218 2.41 209 2.41  56 3.17  28 3.17
                            51 3.17   3 3.17  32 3.17  13 3.17
  10  0.267  0.733  0.330- 211 2.41 145 2.41 217 2.41 208 2.41 214 2.41 158 2.41   4 3.16  52 3.16
                            29 3.16  57 3.16  33 3.16  14 3.16
  11  0.667  0.733  0.330- 195 2.41 115 2.41 105 2.41 107 2.41 192 2.41 118 2.41   7 3.16  63 3.16
                            38 3.16  41 3.16  33 3.16  69 3.16
  12  0.333  0.667  0.500- 210 2.41 191 2.41 179 2.41 204 2.41 194 2.41 207 2.41   5 3.16  53 3.16
                            30 3.16  59 3.16  34 3.16  15 3.16
  13  0.268  0.533  0.670- 212 2.40 209 2.41 173 2.41 176 2.41 206 2.42 181 2.43  32 3.15  18 3.16
                            60 3.17   9 3.17  56 3.18  37 3.20
  14  0.267  0.533  0.330- 211 2.41 205 2.41 175 2.41 172 2.41 180 2.41 208 2.41  33 3.16  10 3.16
                            38 3.16  57 3.16  61 3.16  19 3.16
  15  0.333  0.467  0.500- 186 2.41 153 2.41 179 2.41 204 2.41 188 2.41 150 2.41  20 3.16  62 3.16
                            39 3.16  59 3.16  34 3.16  12 3.16
  16  0.867  0.133  0.330-  90 2.41  94 2.41 124 2.41 132 2.41 102 2.41  97 2.41  26 3.16  66 3.16
                            63 3.16  47 3.16   7 3.16  61 3.16
  17  0.867  0.133  0.670- 104 2.41  96 2.41  88 2.41  91 2.41  93 2.41 122 2.41  65 3.17  60 3.17
                            27 3.17  64 3.17  48 3.17   8 3.17
  18  0.269  0.335  0.669- 152 2.39 181 2.39 178 2.41 206 2.41 170 2.41 167 2.42  43 3.14  37 3.14
                            50 3.16  13 3.16  65 3.19  60 3.19
  19  0.267  0.333  0.330- 205 2.41 154 2.41 169 2.41 166 2.41 180 2.41 151 2.41  61 3.16  66 3.16
                            38 3.16  44 3.16  14 3.16  70 3.16
  20  0.333  0.267  0.500- 202 2.41 153 2.41 144 2.41 147 2.41 183 2.41 150 2.41  15 3.16  62 3.16
                            39 3.16   1 3.16  45 3.16  71 3.16
  21  0.933  0.267  0.500-  80 2.41 123 2.41 165 2.41 131 2.41  81 2.41 168 2.41  59 3.16  73 3.16
                            62 3.16  31 3.16  49 3.17  22 3.17
  22  0.733  0.067  0.500-  80 2.41 101 2.41 110 2.41 131 2.41  95 2.41  76 2.41  23 3.16  30 3.16
                            31 3.16   6 3.16  21 3.17  49 3.17
  23  0.533  0.067  0.500- 219 2.41 136 2.41  95 2.41 197 2.41 101 2.41 222 2.41  22 3.16  31 3.16
                            71 3.16  45 3.16  30 3.16   5 3.16
  24  0.467  0.133  0.330- 148 2.41 184 2.41 203 2.41 220 2.41 200 2.41 146 2.41  70 3.16   4 3.16
                            44 3.16  29 3.16  26 3.16  35 3.16
  25  0.467  0.134  0.670- 149 2.40 155 2.41 221 2.41 223 2.41 185 2.42 182 2.43  50 3.15  36 3.16
                            27 3.17   3 3.17  28 3.18  43 3.20
  26  0.667  0.133  0.330-  94 2.41 203 2.41  84 2.41 220 2.41  78 2.41  97 2.41  35 3.16  29 3.16
                            24 3.16   7 3.16  16 3.16  47 3.16
  27  0.666  0.134  0.670- 223 2.41 221 2.41  79 2.41  85 2.41  96 2.41  93 2.41  28 3.16  48 3.16
                            25 3.17  17 3.17   8 3.18  36 3.19
  28  0.467  0.933  0.671- 215 2.41 218 2.41 134 2.41 223 2.41 199 2.41 221 2.41   8 3.16  27 3.16
                             9 3.17   3 3.17  32 3.18  25 3.18
  29  0.467  0.933  0.330- 201 2.41 203 2.41 217 2.41 214 2.41 198 2.41 220 2.41  10 3.16   4 3.16
                             7 3.16  26 3.16  33 3.16  24 3.16
  30  0.533  0.867  0.500- 191 2.41 136 2.41  76 2.41 197 2.41 110 2.41 194 2.41  22 3.16   6 3.16
                            12 3.16  34 3.16  23 3.16   5 3.16
  31  0.733  0.267  0.500-  81 2.41  95 2.41  77 2.41 123 2.41 101 2.41  87 2.41  40 3.16  45 3.16
                            23 3.16  73 3.16  22 3.16  21 3.16
  32  0.467  0.732  0.670- 212 2.40 209 2.41 199 2.41 134 2.41 196 2.42 193 2.43  13 3.15   2 3.16
                             8 3.17   9 3.17  28 3.18  37 3.20
  33  0.467  0.733  0.330- 211 2.41 195 2.41 201 2.41 198 2.41 192 2.41 208 2.41  14 3.16  10 3.16
                            38 3.16  29 3.16   7 3.16  11 3.16
  34  0.533  0.667  0.500- 186 2.41 116 2.41 191 2.41 194 2.41 188 2.41 119 2.41  46 3.16   6 3.16
                            39 3.16  30 3.16  15 3.16  12 3.16
  35  0.667  0.333  0.330- 184 2.41 127 2.41  84 2.41  78 2.41 200 2.41 130 2.41  26 3.16  47 3.16
                            44 3.16  41 3.16  24 3.16  68 3.16
  36  0.665  0.335  0.669- 129 2.39 182 2.39 185 2.41 126 2.41  85 2.41  79 2.42  43 3.14  42 3.14
                            25 3.16  58 3.16  48 3.19  27 3.19
  37  0.469  0.531  0.668- 190 2.37 196 2.39 206 2.39 181 2.40 193 2.40  42 3.06  43 3.06  18 3.14
                             2 3.14  13 3.20  32 3.20
  38  0.467  0.533  0.330- 195 2.41 205 2.41 189 2.41 135 2.41 180 2.41 192 2.41  41 3.16  44 3.16
                            11 3.16  19 3.16  14 3.16  33 3.16
  39  0.533  0.467  0.500- 186 2.41 133 2.41 202 2.41 188 2.41 183 2.41 128 2.41  15 3.16  34 3.16
                            20 3.16  46 3.16  45 3.16  40 3.16
  40  0.733  0.467  0.500- 133 2.41  87 2.41 109 2.41 113 2.41 128 2.41  77 2.41  45 3.16  31 3.16
                            39 3.16  73 3.16  46 3.16  54 3.16
  41  0.667  0.533  0.330- 127 2.41 115 2.41 189 2.41 135 2.41 130 2.41 118 2.41  38 3.16  44 3.16
                            35 3.16  11 3.16  68 3.16  69 3.16
  42  0.662  0.531  0.668- 190 2.37 126 2.39 114 2.39 129 2.40 117 2.40  37 3.06  43 3.06  36 3.14
                             2 3.14  58 3.20  55 3.20
  43  0.469  0.338  0.668- 190 2.37 185 2.39 178 2.39 182 2.40 152 2.40  37 3.06  42 3.06  36 3.14
                            18 3.14  25 3.20  50 3.20
  44  0.467  0.333  0.330- 184 2.41 154 2.41 189 2.41 135 2.41 200 2.41 151 2.41  38 3.16  41 3.16
                            35 3.16  19 3.16  24 3.16  70 3.16
[...]
  306        strehar                               0.017569                            1   3
  307          m_sumb_d                              0.000158                          1   4
  308        chggra                                0.050718                            1   3
  309          fft3d_mpi                             0.035926                          3   4
  310            fftbrc_mpi                            0.033719                        3   5
  311              fftbas_plan_mpi                       0.033711                      3   6
  312                dfftw_execute                         0.011286                    9   7
  313                map_backward                          0.007082                    2   7
  314                  map_gather                            0.000844                  1   8
  315                  m_alltoallv_z                         0.003540                  1   8
  316                  map_scatter                           0.002666                  1   8
  317                map_forward                           0.012820                    4   7
  318                  map_gather                            0.004542                  2   8
  319                  m_alltoallv_z                         0.006338                  2   8
  320                  map_scatter                           0.001895                  2   8
  321          m_sumb_d                              0.000123                          2   4
  322          pothar                                0.002815                          1   4
  323            m_sumb_d                              0.000101                        1   5
  324        brmix                                 0.175101                            1   3
  325          m_sumb_d                              0.001226                          6   4
  326          brpre                                 0.000324                          2   4
  327          setg0                                 0.009461                          1   4
  328          broyd                                 0.074418                          1   4
  329            m_sumb_d                              0.006170                       46   5
  330            brget                                 0.012197                      243   5
  331            brsav                                 0.003633                       44   5
  332          m_bcast_z                             0.076099                          1   4
  333          m_bcast_d                             0.000259                          1   4
  334        m_bcast_d                             0.000767                            2   3
  335      potlok                               10.366243                              1   2
  336        fft3d_mpi                             1.140456                           86   3
  337          fftbrc_mpi                            1.076421                         86   4
  338            fftbas_plan_mpi                       1.076175                       86   5
  339              dfftw_execute                         0.318739                    258   6
  340              map_forward                           0.393938                     88   6
  341                map_gather                            0.091211                   46   7
  342                m_alltoallv_z                         0.261088                   46   7
  343                map_scatter                           0.040636                   46   7
  344              map_backward                          0.308363                     84   6
  345                map_gather                            0.034528                   42   7
  346                m_alltoallv_z                         0.163770                   42   7
  347                map_scatter                           0.109096                   42   7
  348        m_sumb_d                              0.002234                            8   3
  349        fewald                                0.001584                            2   3
  350          rsp                                   0.001477                          2   4
  351          rcp                                   0.000095                          2   4
  352        pothar                                0.003470                            1   3
  353          m_sumb_d                              0.000775                          1   4
  354        m_bcast_d                             0.005289                            2   3
  355      potlok_metagga                        0.000001                              1   2
  356      set_dd_magatom                        0.000001                              1   2
  357      set_dd_paw                            2.859150                              1   2
  358        set_rsgf_all                          0.000002                            1   3
  359        m_sumb_d                              2.858827                            8   3
  360      densta                              802.316622                              1   2
  361        m_bcast_z                             0.000895                            1   3

 Flat profile

 ggemm                                5932.173283      111092
 total_time                           2160.858374           1
 orth1                                2057.117623      248956
 eddav                                2024.172162          44
 dfftw_execute                        1102.269064     1501704
 densta                                851.378632          45
 potlok                                380.060041          41
 lincom                                345.644214         180
 m_alltoall_d                          321.180038     1223768
 m_sumb_d                              314.833446      949632
 fftbas_plan_mpi                       273.510056      500568
 m_alltoallv_z                         265.305303      500730
 map_scatter                           252.702239      500730
 map_gather                            249.673583      500730
 sphpro_fast                           195.552974           2
 fftwav_mpi                            178.699217      330928
 m_bcast_z                             168.329944      121464
 crrexp_mul_work_add                   143.443630    37153536
 gemm                                  134.951825    18576768
 map_forward                           112.440507      665558
 vhamil                                 96.513950      165864
 rpromu_gemm                            96.125238    13200768
 racc0mu                                84.539040       82932
 crrexp_mul_wave                        75.001384    28265216
 set_charge                             70.217805          40
 rpromu                                 62.117829       58932
 lapack                                 57.420237       82932
 redis_pw                               41.462529      441632
 w1_copy                                34.967399      497592
 eccp                                   32.481343       56320
 fftext_mpi                             28.640387      165864
 pw_charge                              20.832941       38880
 kinhamil                               12.994354      165864
 setup_precond                           9.905026       56320
 overl                                   9.782848      275412
 force_and_stress                        9.258496           1
 m_bcast_d                               9.075967      165992
 apply_precond                           8.612163      109544
 redis_proj                              8.282466      551180
 fft3d_mpi                               4.832194      500568
 overl1                                  4.416008      165864
 setdij_                                 3.476434          68
 augmentation_charge                     3.436771          40
 map_backward                            3.239064      335578
 forhar                                  2.331290           2
 newband                                 2.282011       83108
 hamiltmu                                2.223342       82932
 phaser                                  2.014938         202
 fftbas_mpi                              1.557203      496792
 forloc                                  1.150370           1
 choleski                                1.107437           4
 raccmu_                                 1.034187       82932
 elmin                                   0.908834           1
 broyd                                   0.787739          40
 stufak                                  0.724391           1
 depsum                                  0.616479          40
 soft_charge                             0.589998          40
 brmix                                   0.564083          40
 rspher_all                              0.468510          14
 w1_projall                              0.392666       54772
 setg0                                   0.386845          42
 inisym                                  0.361070           1
 brget                                   0.222137        4683
 truncate_high_frequency_w1              0.218436      222184
 strnlr                                  0.211629           1
 rpro_isp                                0.145956          26
 strkin                                  0.127702           1
 pothar                                  0.110975          42
 brsav                                   0.098798         987
 fornlr                                  0.076612           1
 rsp                                     0.069484          83
 orthch                                  0.029437           1
 set_dd_paw                              0.021859          42
 strehar                                 0.017411           1
 brpre                                   0.016721          80
 strelo                                  0.016175           1
 fft_gq                                  0.016100          40
 chggra                                  0.011854           1
 fftbrc_mpi                              0.010568        3776
 fewald                                  0.007846          83
 rcp                                     0.004665          83
 brgrid                                  0.002141           1
 posmap                                  0.001901           2
 fordep                                  0.000377           1
 crpa_reader                             0.000248           1
 set_rsgf_all                            0.000153          42
 potlok_metagga                          0.000092          41
 vectorpot                               0.000089          41
 set_dd_magatom                          0.000083          42
 proall                                  0.000081           1
 rotate_active_occupied_orbital          0.000015           1
 redis_pw_over_bands                     0.000001           1
  summed up times    18272.8689661026

 Accumulative profile

 total_time                          18272.868966           1
 elmin                               14777.483015           1
 eddav                               13895.481031          44
 ggemm                                5932.173283      111092
 fft3d_mpi                            2265.539781      500568
 fftbas_plan_mpi                      2259.139816      500568
 fftbas_mpi                           2216.504019      496792
 orth1                                2057.117623      248956
 fftwav_mpi                           1694.760121      330928
 hamiltmu                             1237.398906       82932
 dfftw_execute                        1102.269064     1501704
 densta                                851.412135          45
 kinhamil                              744.142380      165864
 fftext_mpi                            731.148026      165864
 map_forward                           622.056685      665558
 potlok                                425.073460          41
 raccmu_                               394.519234       82932
 newband                               390.721133       83108
 racc0mu                               389.069039       82932
 lincom                                345.644214         180
 m_alltoall_d                          321.180038     1223768
 m_sumb_d                              314.833446      949632
 set_charge                            302.288653          40
 redis_pw                              279.133913      441632
 m_alltoallv_z                         265.305303      500730
 map_backward                          261.304012      335578
 map_scatter                           252.702239      500730
 rpromu                                251.720653       58932
 map_gather                            249.673583      500730
 w1_projall                            223.044190       54772
 soft_charge                           221.928254          40
 sphpro_fast                           198.319826           2
 m_bcast_z                             168.329944      121464
 crrexp_mul_work_add                   143.443630    37153536
 gemm                                  134.951825    18576768
 force_and_stress                      133.547635           1
 set_dd_paw                            122.885132          42
 rpro_isp                              113.202382          26
 vhamil                                 96.513950      165864
 rpromu_gemm                            96.125238    13200768
 redis_proj                             91.791120      551180
 strnlr                                 80.554548           1
 crrexp_mul_wave                        75.001384    28265216
 lapack                                 57.420237       82932
 fftbrc_mpi                             44.203568        3776
 eccp                                   36.499208       56320
 w1_copy                                34.967399      497592
 fornlr                                 26.985714           1
 pw_charge                              20.832941       38880
 orthch                                 12.040838           1
 setup_precond                          11.664878       56320
 overl                                   9.782848      275412
 m_bcast_d                               9.075967      165992
 proall                                  8.798063           1
 apply_precond                           8.612163      109544
 augmentation_charge                     4.696248          40
 overl1                                  4.416008      165864
 setdij_                                 3.750063          68
 brmix                                   2.917649          40
 forhar                                  2.346168           2
 phaser                                  2.014938         202
 broyd                                   1.284272          40
 forloc                                  1.158840           1
 choleski                                1.107437           4
 depsum                                  1.073152          40
 stufak                                  0.724391           1
 rspher_all                              0.468510          14
 fewald                                  0.458121          83
 setg0                                   0.386845          42
 fft_gq                                  0.366298          40
 inisym                                  0.362971           1
 fordep                                  0.328585           1
 brget                                   0.222137        4683
 truncate_high_frequency_w1              0.218436      222184
 strkin                                  0.135064           1
 pothar                                  0.130795          42
 brsav                                   0.098798         987
 rsp                                     0.069484          83
 chggra                                  0.050718           1
 strelo                                  0.022651           1
 strehar                                 0.017569           1
 brpre                                   0.016721          80
 rcp                                     0.004665          83
 brgrid                                  0.002141           1
 posmap                                  0.001901           2
 crpa_reader                             0.000248           1
 set_rsgf_all                            0.000153          42
 potlok_metagga                          0.000092          41
 vectorpot                               0.000089          41
 set_dd_magatom                          0.000083          42
 rotate_active_occupied_orbital          0.000015           1
 redis_pw_over_bands                     0.000001           1

Profiling took  54.550987 32.898718  0.008327  0.007507 seconds
Profiling took  52.010190 seconds