 vasp.6.3.2 27Jun22 (build Jan 03 2024 23:05:41) complex

 executed on           IFC15_impi date 2024.07.31  09:10:03

 INCAR:
   ENCUT = 600.00
   EDIFF = 1.00e-06
   ALGO = Normal
   ISMEAR = -5
   LORBIT = 11
   ICHARG = 11
   EMIN = -8.
   EMAX = 5.
   NEDOS = 3000
   LCHARG = .TRUE.
   LWAVE = .FALSE.
   LREAL = Auto
   NELM = 2000
   NCORE = 16
   KPAR = 8
   ISPIN = 2
   GGA = MK
   PARAM1 = 0.1234
   PARAM2 = 1.0
   AGGAC = 0.0
   LUSE_VDW = .TRUE.
   LASPH = .TRUE.
   LDIPOL = .TRUE.
   DIPOL = 0.5 0.5 0.5
   IDIPOL = 3

 POTCAR:    PAW_PBE Mo_sv 02Feb2006
 POTCAR:    PAW_PBE S 06Sep2000
|           W    W    AA    RRRRR   N    N  II  N    N   GGGG   !!!           |
|           W    W   A  A   R    R  NN   N  II  NN   N  G    G  !!!           |
|           W    W  A    A  R    R  N N  N  II  N N  N  G       !!!           |
|           W WW W  AAAAAA  RRRRR   N  N N  II  N  N N  G  GGG   !            |
|           WW  WW  A    A  R   R   N   NN  II  N   NN  G    G                |
|           W    W  A    A  R    R  N    N  II  N    N   GGGG   !!!           |
|     You use a magnetic or noncollinear calculation, but did not specify     |
|     the initial magnetic moment with the MAGMOM tag. Note that a            |
|     default of 1 will be used for all atoms. This ferromagnetic setup       |
|     may break the symmetry of the crystal, in particular it may rule        |
|     out finding an antiferromagnetic solution. Thence, we recommend         |
|     setting the initial magnetic moment manually or verifying carefully     |
|     that this magnetic setup is desired.                                    |

   TITEL  = PAW_PBE Mo_sv 02Feb2006
   POMASS =   95.940; ZVAL   =   14.000    mass and valenz
   ENMAX  =  242.676; ENMIN  =  182.007 eV

   TITEL  = PAW_PBE S 06Sep2000
   POMASS =   32.066; ZVAL   =    6.000    mass and valenz
   ENMAX  =  258.689; ENMIN  =  194.016 eV

 Optimization of the real space projectors (new method)

 maximal supplied QI-value         = 15.12
 optimisation between [QCUT,QGAM] = [ 12.55, 25.10] = [ 44.09,176.36] Ry
 Optimized for a Real-space Cutoff    1.47 Angstroem

   l    n(q)    QCUT    max X(q) W(low)/X(q) W(high)/X(q)  e(spline)
   0     11    12.548     3.559    0.18E-04    0.60E-05    0.19E-06
   0     11    12.548    20.730    0.37E-04    0.13E-04    0.98E-07
   1     11    12.548     3.279    0.80E-06    0.70E-06    0.27E-07
   1     11    12.548     4.693    0.72E-04    0.11E-03    0.38E-06
   2     10    12.548    67.616    0.34E-03    0.45E-03    0.54E-06
   2     10    12.548    62.420    0.34E-03    0.45E-03    0.54E-06
 Optimization of the real space projectors (new method)

 maximal supplied QI-value         = 19.84
 optimisation between [QCUT,QGAM] = [ 12.50, 25.00] = [ 43.76,175.03] Ry
 Optimized for a Real-space Cutoff    1.06 Angstroem

   l    n(q)    QCUT    max X(q) W(low)/X(q) W(high)/X(q)  e(spline)
   0      8    12.501   187.594    0.26E-03    0.17E-03    0.97E-07
   0      8    12.501   164.243    0.26E-03    0.17E-03    0.96E-07
   1      7    12.501    67.533    0.50E-03    0.61E-03    0.91E-07
   1      7    12.501    50.729    0.48E-03    0.60E-03    0.90E-07
|               ----> ADVICE to this user running VASP <----                  |
|     You enforced a specific xc type in the INCAR file but a different       |
|     type was found in the POTCAR file.                                      |
|     I HOPE YOU KNOW WHAT YOU ARE DOING!                                     |

  PAW_PBE Mo_sv 02Feb2006               :
  PAW_PBE S 06Sep2000                   :

 POSCAR: Mo S
  positions in direct lattice
  velocities in cartesian coordinates
 exchange correlation table for  LEXCH =       43
   RHO(1)=    0.500       N(1)  =     2000
   RHO(2)=  100.500       N(2)  =     4000

 VTST: version 4.1, (05/19/21)

 CHAIN: initializing optimizer

 OPT: Using VASP Dynamics algorithm
 CHAIN: Read ICHAIN            0

 POSCAR: Mo S
  positions in direct lattice
  velocities in cartesian coordinates

 ion  position               nearest neighbor table
   1  0.667  0.733  0.500-  37 2.41  66 2.41  39 2.41  65 2.41  36 2.41  40 2.41  11 3.16   3 3.16
                            13 3.16  23 3.16  19 3.16  14 3.16
   2  0.267  0.933  0.500-  72 2.41  48 2.41  49 2.41  71 2.41  47 2.41  51 2.41  25 3.16   4 3.16
                            18 3.16  10 3.16  17 3.16   8 3.16
   3  0.667  0.933  0.500-  37 2.41  45 2.41  32 2.41  36 2.41  67 2.41  33 2.41  10 3.16   1 3.16
                            11 3.16   9 3.16  23 3.16   6 3.16
   4  0.267  0.733  0.500-  46 2.41  72 2.41  70 2.41  52 2.41  71 2.41  69 2.41  18 3.16   2 3.16
                            20 3.16  10 3.16   5 3.16  11 3.16
   5  0.267  0.533  0.500-  68 2.41  58 2.41  70 2.41  60 2.41  57 2.41  69 2.41  20 3.16   7 3.16
                            22 3.16   4 3.16  13 3.16  11 3.16
   6  0.867  0.133  0.500-  30 2.41  32 2.41  42 2.41  35 2.41  33 2.41  29 2.41  23 3.16  24 3.16
                             9 3.16  16 3.16   3 3.16  22 3.16
   7  0.267  0.333  0.500-  56 2.41  68 2.41  59 2.41  55 2.41  60 2.41  50 2.41  22 3.16   5 3.16
                            24 3.16  13 3.16  15 3.16  17 3.16
   8  0.467  0.133  0.500-  74 2.41  62 2.41  49 2.41  73 2.41  51 2.41  61 2.41   9 3.16  12 3.16
                            10 3.16  15 3.16  17 3.16   2 3.16
   9  0.667  0.133  0.500-  32 2.41  28 2.41  74 2.41  33 2.41  73 2.41  26 2.41   8 3.16  10 3.16
                             3 3.16   6 3.16  12 3.16  16 3.16
  10  0.467  0.933  0.500-  45 2.41  72 2.41  74 2.41  67 2.41  71 2.41  73 2.41   3 3.16  11 3.16
                             9 3.16   4 3.16   2 3.16   8 3.16
  11  0.467  0.733  0.500-  66 2.41  45 2.41  70 2.41  65 2.41  69 2.41  67 2.41   1 3.16  10 3.16
                             3 3.16   4 3.16  13 3.16   5 3.16
  12  0.667  0.333  0.500-  43 2.41  62 2.41  28 2.41  61 2.41  44 2.41  26 2.41  15 3.16  14 3.16
                             8 3.16  21 3.16  16 3.16   9 3.16
  13  0.467  0.533  0.500-  64 2.41  66 2.41  68 2.41  63 2.41  60 2.41  65 2.41  14 3.16  15 3.16
                             1 3.16   7 3.16   5 3.16  11 3.16
  14  0.667  0.533  0.500-  43 2.41  39 2.41  64 2.41  44 2.41  63 2.41  40 2.41  13 3.16  12 3.16
                            15 3.16   1 3.16  21 3.16  19 3.16
  15  0.467  0.333  0.500-  62 2.41  59 2.41  64 2.41  61 2.41  50 2.41  63 2.41  12 3.16  13 3.16
                            14 3.16   8 3.16   7 3.16  17 3.16
  16  0.867  0.333  0.500-  42 2.41  41 2.41  28 2.41  29 2.41  26 2.41  38 2.41  21 3.16  20 3.16
                             6 3.16  12 3.16  22 3.16   9 3.16
  17  0.267  0.133  0.500-  49 2.41  54 2.41  59 2.41  51 2.41  53 2.41  50 2.41  24 3.16  25 3.16
                             8 3.16   2 3.16   7 3.16  15 3.16
  18  0.067  0.733  0.500-  46 2.41  48 2.41  27 2.41  52 2.41  47 2.41  31 2.41   4 3.16  25 3.16
                             2 3.16  20 3.16  19 3.16  21 3.16
  19  0.867  0.733  0.500-  27 2.41  39 2.41  75 2.41  31 2.41  40 2.41  34 2.41  23 3.16  25 3.16
                            21 3.16   1 3.16  18 3.16  14 3.16
  20  0.067  0.533  0.500-  58 2.41  46 2.41  41 2.41  57 2.41  52 2.41  38 2.41   5 3.16  22 3.16
                             4 3.16  16 3.16  21 3.16  18 3.16
  21  0.867  0.533  0.500-  41 2.41  27 2.41  43 2.41  38 2.41  44 2.41  31 2.41  16 3.16  12 3.16
                            14 3.16  19 3.16  20 3.16  18 3.16
  22  0.067  0.333  0.500-  56 2.41  58 2.41  42 2.41  55 2.41  57 2.41  29 2.41   7 3.16  20 3.16
                             5 3.16  16 3.16  24 3.16   6 3.16
  23  0.867  0.933  0.500-  75 2.41  37 2.41  30 2.41  34 2.41  36 2.41  35 2.41  19 3.16   1 3.16
                             6 3.16   3 3.16  25 3.16  24 3.16
  24  0.067  0.133  0.500-  54 2.41  56 2.41  30 2.41  53 2.41  55 2.41  35 2.41  17 3.16   7 3.16
                             6 3.16  22 3.16  25 3.16  23 3.16
  25  0.067  0.933  0.500-  48 2.41  75 2.41  54 2.41  47 2.41  34 2.41  53 2.41   2 3.16  18 3.16
                            17 3.16  19 3.16  23 3.16  24 3.16
  26  0.733  0.267  0.568-  16 2.41   9 2.41  12 2.41
  27  0.933  0.667  0.432-  19 2.41  21 2.41  18 2.41
  28  0.733  0.267  0.432-   9 2.41  16 2.41  12 2.41
  29  0.933  0.267  0.568-  16 2.41   6 2.41  22 2.41
  30  0.933  0.067  0.432-   6 2.41  24 2.41  23 2.41
  31  0.933  0.667  0.568-  19 2.41  21 2.41  18 2.41
  32  0.733  0.067  0.432-   9 2.41   6 2.41   3 2.41
  33  0.733  0.067  0.568-   9 2.41   6 2.41   3 2.41
  34  0.933  0.867  0.568-  23 2.41  19 2.41  25 2.41
  35  0.933  0.067  0.568-   6 2.41  24 2.41  23 2.41
  36  0.733  0.867  0.568-   3 2.41  23 2.41   1 2.41
  37  0.733  0.867  0.432-   3 2.41   1 2.41  23 2.41
  38  0.933  0.467  0.568-  21 2.41  16 2.41  20 2.41
  39  0.733  0.667  0.432-  14 2.41  19 2.41   1 2.41
  40  0.733  0.667  0.568-  19 2.41  14 2.41   1 2.41
  41  0.933  0.467  0.432-  21 2.41  16 2.41  20 2.41
  42  0.933  0.267  0.432-  16 2.41   6 2.41  22 2.41
  43  0.733  0.467  0.432-  14 2.41  12 2.41  21 2.41
  44  0.733  0.467  0.568-  14 2.41  21 2.41  12 2.41
  45  0.533  0.867  0.432-  10 2.41   3 2.41  11 2.41
  46  0.133  0.667  0.432-  18 2.41   4 2.41  20 2.41
  47  0.133  0.867  0.568-  25 2.41   2 2.41  18 2.41
  48  0.133  0.867  0.432-  25 2.41  18 2.41   2 2.41
  49  0.333  0.067  0.432-  17 2.41   8 2.41   2 2.41
  50  0.333  0.267  0.568-  15 2.41  17 2.41   7 2.41
  51  0.333  0.067  0.568-  17 2.41   8 2.41   2 2.41
  52  0.133  0.667  0.568-  18 2.41   4 2.41  20 2.41
  53  0.133  0.067  0.568-  24 2.41  17 2.41  25 2.41
  54  0.133  0.067  0.432-  24 2.41  17 2.41  25 2.41
  55  0.133  0.267  0.568-  22 2.41   7 2.41  24 2.41
  56  0.133  0.267  0.432-  22 2.41   7 2.41  24 2.41
  57  0.133  0.467  0.568-  20 2.41   5 2.41  22 2.41
  58  0.133  0.467  0.432-  20 2.41   5 2.41  22 2.41
  59  0.333  0.267  0.432-  15 2.41  17 2.41   7 2.41
  60  0.333  0.467  0.568-   5 2.41  13 2.41   7 2.41
  61  0.533  0.267  0.568-  15 2.41  12 2.41   8 2.41
  62  0.533  0.267  0.432-  15 2.41  12 2.41   8 2.41
  63  0.533  0.467  0.568-  13 2.41  14 2.41  15 2.41
  64  0.533  0.467  0.432-  13 2.41  14 2.41  15 2.41
  65  0.533  0.667  0.568-  11 2.41   1 2.41  13 2.41
  66  0.533  0.667  0.432-  11 2.41   1 2.41  13 2.41
  67  0.533  0.867  0.568-  10 2.41   3 2.41  11 2.41
  68  0.333  0.467  0.432-   5 2.41   7 2.41  13 2.41
  69  0.333  0.667  0.568-  11 2.41   5 2.41   4 2.41
  70  0.333  0.667  0.432-   5 2.41  11 2.41   4 2.41
  71  0.333  0.867  0.568-   2 2.41  10 2.41   4 2.41
  72  0.333  0.867  0.432-   2 2.41   4 2.41  10 2.41
  73  0.533  0.067  0.568-   8 2.41   9 2.41  10 2.41
  74  0.533  0.067  0.432-   8 2.41   9 2.41  10 2.41
  75  0.933  0.867  0.432-  23 2.41  19 2.41  25 2.41

  LATTYP: Found a hexagonal cell.
 ALAT       =    15.8227970706
 C/A-ratio  =     1.4623157837

  Lattice vectors:

 A1 = (   7.9113985353, -13.7029442220,   0.0000000000)
 A2 = (   7.9113985353,  13.7029442220,   0.0000000000)
 A3 = (   0.0000000000,   0.0000000000,  23.1379258980)

Analysis of symmetry for initial positions (statically):
[...]
  254          m_sumb_d                              0.693504                         10   4
  255        m_sumb_d                              0.003063                            7   3
  256        fft3d_mpi                             0.869724                           82   3
  257          fftbrc_mpi                            0.824113                         82   4
  258            fftbas_plan_mpi                       0.823875                       82   5
  259              dfftw_execute                         0.203932                    246   6
  260              map_forward                           0.242002                     80   6
  261                map_gather                            0.070301                   40   7
  262                m_alltoallv_z                         0.144018                   40   7
  263                map_scatter                           0.026923                   40   7
  264              map_backward                          0.327678                     84   6
  265                map_gather                            0.031761                   42   7
  266                m_alltoallv_z                         0.171011                   42   7
  267                map_scatter                           0.123991                   42   7
  268        forhar                                0.484224                            2   3
  269          m_sumb_d                              0.001504                          2   4
  270        strehar                               0.013108                            1   3
  271          m_sumb_d                              0.000177                          1   4
  272        chggra                                0.046033                            1   3
  273          fft3d_mpi                             0.031776                          3   4
  274            fftbrc_mpi                            0.030240                        3   5
  275              fftbas_plan_mpi                       0.030232                      3   6
  276                dfftw_execute                         0.007144                    9   7
  277                map_backward                          0.008276                    2   7
  278                  map_gather                            0.000901                  1   8
  279                  m_alltoallv_z                         0.003079                  1   8
  280                  map_scatter                           0.004265                  1   8
  281                map_forward                           0.012983                    4   7
  282                  map_gather                            0.004721                  2   8
  283                  m_alltoallv_z                         0.006715                  2   8
  284                  map_scatter                           0.001502                  2   8
  285          m_sumb_d                              0.000125                          2   4
  286          pothar                                0.003848                          1   4
  287            m_sumb_d                              0.000504                        1   5
  288        m_bcast_d                             0.467706                            2   3
  289      potlok                                6.512604                              1   2
  290        fft3d_mpi                             0.941212                           86   3
  291          fftbrc_mpi                            0.894767                         86   4
  292            fftbas_plan_mpi                       0.894507                       86   5
  293              dfftw_execute                         0.206091                    258   6
  294              map_forward                           0.268772                     88   6
  295                map_gather                            0.075723                   46   7
  296                m_alltoallv_z                         0.162269                   46   7
  297                map_scatter                           0.029884                   46   7
  298              map_backward                          0.366771                     84   6
  299                map_gather                            0.031804                   42   7
  300                m_alltoallv_z                         0.207818                   42   7
  301                map_scatter                           0.126363                   42   7
  302        m_sumb_d                              0.008954                            8   3
  303        fewald                                0.001599                            2   3
  304          rsp                                   0.001374                          2   4
  305          rcp                                   0.000195                          2   4
  306        pothar                                0.001976                            1   3
  307          m_sumb_d                              0.000314                          1   4
  308        m_bcast_d                             0.004083                            2   3
  309      potlok_metagga                        0.000001                              1   2
  310      set_dd_magatom                        0.000001                              1   2
  311      set_dd_paw                            3.212070                              1   2
  312        set_rsgf_all                          0.000001                            1   3
  313        m_sumb_d                              3.211668                            8   3
  314      densta                             1438.425519                              1   2
  315        m_bcast_z                             0.000932                            1   3

 Flat profile

 densta                               1451.724929          11
 total_time                            685.555405           1
 ggemm                                 155.461146        9582
 dfftw_execute                          65.785589      137544
 m_bcast_z                              45.557869       20287
 m_sumb_d                               45.422502       93293
 orth1                                  44.199212       22322
 eddav                                  39.637353          10
 m_alltoallv_z                          26.609426       45854
 fftbas_plan_mpi                        23.265440       45848
 sphpro_fast                            22.305119           2
 m_alltoall_d                           21.949437      109012
 fftwav_mpi                             18.358791       30924
 map_scatter                            14.310123       45854
 map_gather                             13.509437       45854
 vhamil                                 12.618495       14656
 potlok                                 12.235747           2
 map_forward                            10.927639       62118
 lincom                                  6.037997          44
 lapack                                  5.735569        7422
 force_and_stress                        5.610498           1
 crrexp_mul_work_add                     4.009836     1099200
 rpromu_gemm                             3.927915      488850
 gemm                                    3.797426      542550
 crrexp_mul_wave                         3.021391     1195500
 rpromu                                  2.609885        6518
 w1_copy                                 2.584128       43968
 racc0mu                                 2.519839        7234
 eccp                                    2.317466        4280
 redis_pw                                2.107447       39776
 set_charge                              1.846220           1
 fftext_mpi                              1.661108       14656
 m_bcast_d                               1.469260       15415
 kinhamil                                1.090104       14656
 apply_precond                           0.953419       10376
 redis_proj                              0.600636       50156
 overl                                   0.539558       25036
 setdij_                                 0.533092          29
 setup_precond                           0.493778        4280
 forhar                                  0.482720           2
 fft3d_mpi                               0.326499       45848
 stufak                                  0.305186           2
 map_backward                            0.272787       29578
 forloc                                  0.241631           1
 overl1                                  0.240448       14656
 elmin                                   0.220138           1
 phaser                                  0.213800          66
 inisym                                  0.208726           1
 hamiltmu                                0.195880        7422
 pw_charge                               0.194273         328
 newband                                 0.164713        7462
 rspher_all                              0.156340          14
 fftbas_mpi                              0.145899       45580
 racc0                                   0.093309         188
 choleski                                0.092900           4
 raccmu_                                 0.090742        7422
 rpro1                                   0.079646         148
 augmentation_charge                     0.053870           1
 rpro_isp                                0.044177          26
 w1_projall                              0.037663        5262
 strnlr                                  0.030526           1
 strkin                                  0.026121           1
 strelo                                  0.023262           1
 truncate_high_frequency_w1              0.018039       18936
 strehar                                 0.012931           1
 soft_charge                             0.010807           1
 fornlr                                  0.010646           1
 chggra                                  0.010283           1
 posmap                                  0.009013           2
 pothar                                  0.006952           3
 orthch                                  0.006676           1
 fewald                                  0.005573           5
 rsp                                     0.004518           5
 depsum                                  0.002311           1
 set_dd_paw                              0.001915           3
 fftbrc_mpi                              0.000804         268
 rcp                                     0.000507           5
 fft_gq                                  0.000381           1
 crpa_reader                             0.000248           1
 fordep                                  0.000182           1
 proall                                  0.000069           1
 vectorpot                               0.000031           2
 set_rsgf_all                            0.000022           3
 rotate_active_occupied_orbital          0.000018           1
 set_dd_magatom                          0.000013           3
 potlok_metagga                          0.000012           2
 redis_pw_over_bands                     0.000001           1
  summed up times    2766.94344305992

 Accumulative profile

 total_time                           2766.943443           1
 densta                               1451.729623          11
 elmin                                 497.531106           1
 eddav                                 471.911036          10
 ggemm                                 155.461146        9582
 fft3d_mpi                             155.153642       45848
 fftbas_plan_mpi                       154.680440       45848
 fftbas_mpi                            152.058592       45580
 fftwav_mpi                            124.026503       30924
 hamiltmu                               74.499892        7422
 dfftw_execute                          65.785589      137544
 kinhamil                               49.324088       14656
 fftext_mpi                             48.233984       14656
 map_forward                            46.631943       62118
 m_bcast_z                              45.557869       20287
 m_sumb_d                               45.422502       93293
 orth1                                  44.199212       22322
 force_and_stress                       40.431313           1
 m_alltoallv_z                          26.609426       45854
 rpro_isp                               26.452807          26
 newband                                23.126686        7462
 sphpro_fast                            22.564537           2
 m_alltoall_d                           21.949437      109012
 strnlr                                 19.131363           1
 map_backward                           18.997469       29578
 redis_pw                               17.859428       39776
 map_scatter                            14.310123       45854
 potlok                                 14.169511           2
 map_gather                             13.509437       45854
 vhamil                                 12.618495       14656
 raccmu_                                12.361429        7422
 racc0mu                                11.854366        7234
 rpromu                                 11.023406        6518
 set_dd_paw                              9.407039           3
 w1_projall                              7.791575        5262
 redis_proj                              6.798093       50156
 fornlr                                  6.448037           1
 lincom                                  6.037997          44
 lapack                                  5.735569        7422
 crrexp_mul_work_add                     4.009836     1099200
 rpromu_gemm                             3.927915      488850
 gemm                                    3.797426      542550
 set_charge                              3.718678           1
 crrexp_mul_wave                         3.021391     1195500
 fftbrc_mpi                              2.768551         268
 w1_copy                                 2.584128       43968
 eccp                                    2.530838        4280
 proall                                  2.069285           1
 soft_charge                             1.576391           1
 m_bcast_d                               1.469260       15415
 orthch                                  1.145760           1
 apply_precond                           0.953419       10376
 setup_precond                           0.666114        4280
 setdij_                                 0.587220          29
 overl                                   0.539558       25036
 forhar                                  0.484224           2
 stufak                                  0.305186           2
 forloc                                  0.241802           1
 overl1                                  0.240448       14656
 inisym                                  0.217739           1
 phaser                                  0.213800          66
 pw_charge                               0.194273         328
 racc0                                   0.175872         188
 rspher_all                              0.156340          14
 depsum                                  0.151425           1
 rpro1                                   0.132192         148
 fordep                                  0.117924           1
 choleski                                0.092900           4
 fewald                                  0.081556           5
 augmentation_charge                     0.079211           1
 chggra                                  0.046033           1
 strkin                                  0.028288           1
 strelo                                  0.023881           1
 truncate_high_frequency_w1              0.018039       18936
 strehar                                 0.013108           1
 pothar                                  0.009094           3
 posmap                                  0.009013           2
 fft_gq                                  0.007637           1
 rsp                                     0.004518           5
 rcp                                     0.000507           5
 crpa_reader                             0.000248           1
 vectorpot                               0.000031           2
 set_rsgf_all                            0.000022           3
 rotate_active_occupied_orbital          0.000018           1
 set_dd_magatom                          0.000013           3
 potlok_metagga                          0.000012           2
 redis_pw_over_bands                     0.000001           1

Profiling took   2.640065  1.355978  0.009058  0.008496 seconds
Profiling took   2.551149 seconds