 vasp.6.3.2 27Jun22 (build Jan 03 2024 23:05:41) complex

 executed on           IFC15_impi date 2024.07.31  08:00:02

 INCAR:
   ENCUT = 600.00
   EDIFF = 1.00e-06
   IBRION = -1
   NSW = 0
   ALGO = Normal
   ISMEAR = -5
   LORBIT = 11
   LCHARG = .TRUE.
   LWAVE = .FALSE.
   LREAL = Auto
   NELM = 2000
   NCORE = 16
   KPAR = 8
   ISPIN = 2
   GGA = MK
   PARAM1 = 0.1234
   PARAM2 = 1.0
   AGGAC = 0.0
   LUSE_VDW = .TRUE.
   LASPH = .TRUE.
   LDIPOL = .TRUE.
   DIPOL = 0.5 0.5 0.5
   IDIPOL = 3

 POTCAR:    PAW_PBE Mo_sv 02Feb2006
 POTCAR:    PAW_PBE S 06Sep2000
|           W    W    AA    RRRRR   N    N  II  N    N   GGGG   !!!           |
|           W    W   A  A   R    R  NN   N  II  NN   N  G    G  !!!           |
|           W    W  A    A  R    R  N N  N  II  N N  N  G       !!!           |
|           W WW W  AAAAAA  RRRRR   N  N N  II  N  N N  G  GGG   !            |
|           WW  WW  A    A  R   R   N   NN  II  N   NN  G    G                |
|           W    W  A    A  R    R  N    N  II  N    N   GGGG   !!!           |
|     You use a magnetic or noncollinear calculation, but did not specify     |
|     the initial magnetic moment with the MAGMOM tag. Note that a            |
|     default of 1 will be used for all atoms. This ferromagnetic setup       |
|     may break the symmetry of the crystal, in particular it may rule        |
|     out finding an antiferromagnetic solution. Thence, we recommend         |
|     setting the initial magnetic moment manually or verifying carefully     |
|     that this magnetic setup is desired.                                    |

   TITEL  = PAW_PBE Mo_sv 02Feb2006
   POMASS =   95.940; ZVAL   =   14.000    mass and valenz
   ENMAX  =  242.676; ENMIN  =  182.007 eV

   TITEL  = PAW_PBE S 06Sep2000
   POMASS =   32.066; ZVAL   =    6.000    mass and valenz
   ENMAX  =  258.689; ENMIN  =  194.016 eV

 Optimization of the real space projectors (new method)

 maximal supplied QI-value         = 15.12
 optimisation between [QCUT,QGAM] = [ 12.55, 25.10] = [ 44.09,176.36] Ry
 Optimized for a Real-space Cutoff    1.47 Angstroem

   l    n(q)    QCUT    max X(q) W(low)/X(q) W(high)/X(q)  e(spline)
   0     11    12.548     3.559    0.18E-04    0.60E-05    0.19E-06
   0     11    12.548    20.730    0.37E-04    0.13E-04    0.98E-07
   1     11    12.548     3.279    0.80E-06    0.70E-06    0.27E-07
   1     11    12.548     4.693    0.72E-04    0.11E-03    0.38E-06
   2     10    12.548    67.616    0.34E-03    0.45E-03    0.54E-06
   2     10    12.548    62.420    0.34E-03    0.45E-03    0.54E-06
 Optimization of the real space projectors (new method)

 maximal supplied QI-value         = 19.84
 optimisation between [QCUT,QGAM] = [ 12.50, 25.00] = [ 43.76,175.03] Ry
 Optimized for a Real-space Cutoff    1.06 Angstroem

   l    n(q)    QCUT    max X(q) W(low)/X(q) W(high)/X(q)  e(spline)
   0      8    12.501   187.594    0.26E-03    0.17E-03    0.97E-07
   0      8    12.501   164.243    0.26E-03    0.17E-03    0.96E-07
   1      7    12.501    67.533    0.50E-03    0.61E-03    0.91E-07
   1      7    12.501    50.729    0.48E-03    0.60E-03    0.90E-07
|               ----> ADVICE to this user running VASP <----                  |
|     You enforced a specific xc type in the INCAR file but a different       |
|     type was found in the POTCAR file.                                      |
|     I HOPE YOU KNOW WHAT YOU ARE DOING!                                     |

  PAW_PBE Mo_sv 02Feb2006               :
  PAW_PBE S 06Sep2000                   :

 POSCAR: Mo S
  positions in direct lattice
  velocities in cartesian coordinates
 exchange correlation table for  LEXCH =       43
   RHO(1)=    0.500       N(1)  =     2000
   RHO(2)=  100.500       N(2)  =     4000

 VTST: version 4.1, (05/19/21)

 CHAIN: initializing optimizer

 OPT: Using VASP Dynamics algorithm
 CHAIN: Read ICHAIN            0

 POSCAR: Mo S
  positions in direct lattice
  velocities in cartesian coordinates

 ion  position               nearest neighbor table
   1  0.665  0.731  0.499-  64 2.39  40 2.39  37 2.41  65 2.41  39 2.41  36 2.42  13 3.13  14 3.13
                            11 3.16  19 3.16   3 3.19  23 3.19
   2  0.267  0.934  0.501-  49 2.41  71 2.41  48 2.41  47 2.41  70 2.41  51 2.41  25 3.17  10 3.17
                             4 3.17  18 3.17  17 3.17   8 3.17
   3  0.666  0.933  0.500-  45 2.40  66 2.41  36 2.41  37 2.41  33 2.41  32 2.41  10 3.16  23 3.17
                            11 3.17   6 3.17   9 3.18   1 3.19
   4  0.267  0.733  0.501-  69 2.41  46 2.41  71 2.41  52 2.41  70 2.41  68 2.41  10 3.17  20 3.17
                            18 3.17   2 3.17  11 3.17   5 3.17
   5  0.268  0.533  0.500-  69 2.40  68 2.41  58 2.41  57 2.41  67 2.42  60 2.43  11 3.15   7 3.16
                            22 3.17   4 3.17  20 3.18  13 3.20
   6  0.867  0.133  0.500-  35 2.41  33 2.41  29 2.41  30 2.41  32 2.41  42 2.41   9 3.17  24 3.17
                            23 3.17  16 3.17  22 3.17   3 3.17
   7  0.269  0.335  0.499-  60 2.39  50 2.39  56 2.41  67 2.41  59 2.41  55 2.42  13 3.13  15 3.13
                             5 3.16  17 3.16  22 3.19  24 3.19
   8  0.467  0.134  0.500-  49 2.40  51 2.41  73 2.41  72 2.41  62 2.42  61 2.43  17 3.15  12 3.16
                             9 3.17   2 3.17  10 3.18  15 3.20
   9  0.666  0.134  0.500-  73 2.40  72 2.41  26 2.41  28 2.41  33 2.41  32 2.41  10 3.16  16 3.17
                             8 3.17   6 3.17   3 3.18  12 3.19
  10  0.467  0.933  0.501-  71 2.41  70 2.41  45 2.41  73 2.41  66 2.41  72 2.41   3 3.16   9 3.16
                             4 3.17   2 3.17  11 3.18   8 3.18
  11  0.467  0.732  0.500-  69 2.40  68 2.41  45 2.41  66 2.41  65 2.42  64 2.43   5 3.15   1 3.16
                             3 3.17   4 3.17  10 3.18  13 3.20
  12  0.665  0.335  0.499-  61 2.39  44 2.39  28 2.41  43 2.41  62 2.41  26 2.42  15 3.13  14 3.13
                             8 3.16  21 3.16  16 3.19   9 3.19
  13  0.469  0.531  0.497-  63 2.38  67 2.39  65 2.39  60 2.40  64 2.40  14 3.06  15 3.06   7 3.13
                             1 3.13   5 3.20  11 3.20
  14  0.662  0.531  0.497-  63 2.38  39 2.39  43 2.39  40 2.40  44 2.40  13 3.06  15 3.06  12 3.13
                             1 3.13  21 3.20  19 3.20
  15  0.469  0.338  0.497-  63 2.38  59 2.39  62 2.39  50 2.40  61 2.40  13 3.06  14 3.06  12 3.13
                             7 3.13   8 3.20  17 3.20
  16  0.866  0.334  0.500-  41 2.40  38 2.41  26 2.41  28 2.41  29 2.41  42 2.41  20 3.16   9 3.17
                            21 3.17   6 3.17  22 3.18  12 3.19
  17  0.268  0.134  0.500-  49 2.40  51 2.41  54 2.41  53 2.41  59 2.42  50 2.43   8 3.15   7 3.16
                            24 3.17   2 3.17  25 3.18  15 3.20
  18  0.066  0.733  0.501-  27 2.41  46 2.41  48 2.41  47 2.41  52 2.41  31 2.41  25 3.17  20 3.17
                             4 3.17   2 3.17  19 3.17  21 3.17
  19  0.866  0.732  0.500-  27 2.40  31 2.41  74 2.41  34 2.41  39 2.42  40 2.43  21 3.15   1 3.16
                            23 3.17  18 3.17  25 3.18  14 3.20
  20  0.067  0.533  0.501-  46 2.41  52 2.41  58 2.41  41 2.41  57 2.41  38 2.41  22 3.16  16 3.16
                             4 3.17  18 3.17   5 3.18  21 3.18
  21  0.866  0.533  0.500-  27 2.40  31 2.41  41 2.41  38 2.41  43 2.42  44 2.43  19 3.15  12 3.16
                            16 3.17  18 3.17  20 3.18  14 3.20
  22  0.067  0.334  0.500-  58 2.40  57 2.41  55 2.41  56 2.41  29 2.41  42 2.41  20 3.16  24 3.17
                             5 3.17   6 3.17  16 3.18   7 3.19
  23  0.866  0.933  0.500-  74 2.40  34 2.41  36 2.41  37 2.41  35 2.41  30 2.41  25 3.16   3 3.17
                            19 3.17   6 3.17  24 3.18   1 3.19
  24  0.067  0.134  0.500-  54 2.40  53 2.41  55 2.41  56 2.41  35 2.41  30 2.41  25 3.16  22 3.17
                            17 3.17   6 3.17  23 3.18   7 3.19
  25  0.067  0.933  0.501-  48 2.41  47 2.41  54 2.41  74 2.41  34 2.41  53 2.41  23 3.16  24 3.16
                             2 3.17  18 3.17  17 3.18  19 3.18
  26  0.732  0.268  0.567-  16 2.41   9 2.41  12 2.42
  27  0.934  0.667  0.433-  21 2.40  19 2.40  18 2.41
  28  0.733  0.267  0.432-  16 2.41   9 2.41  12 2.41
  29  0.933  0.267  0.568-   6 2.41  16 2.41  22 2.41
  30  0.934  0.066  0.433-   6 2.41  23 2.41  24 2.41
  31  0.932  0.666  0.569-  21 2.41  19 2.41  18 2.41
  32  0.733  0.066  0.433-   6 2.41   9 2.41   3 2.41
  33  0.733  0.067  0.568-   6 2.41   9 2.41   3 2.41
  34  0.932  0.866  0.568-  23 2.41  19 2.41  25 2.41
  35  0.933  0.067  0.568-   6 2.41  24 2.41  23 2.41
  36  0.732  0.864  0.567-   3 2.41  23 2.41   1 2.42
  37  0.733  0.867  0.432-   3 2.41  23 2.41   1 2.41
  38  0.932  0.466  0.568-  16 2.41  21 2.41  20 2.41
  39  0.734  0.665  0.431-  14 2.39   1 2.41  19 2.42
  40  0.727  0.661  0.566-   1 2.39  14 2.40  19 2.43
  41  0.934  0.467  0.433-  16 2.40  20 2.41  21 2.41
  42  0.934  0.267  0.433-   6 2.41  16 2.41  22 2.41
  43  0.734  0.468  0.431-  14 2.39  12 2.41  21 2.42
  44  0.727  0.466  0.566-  12 2.39  14 2.40  21 2.43
  45  0.533  0.866  0.433-   3 2.40  10 2.41  11 2.41
  46  0.133  0.667  0.434-  20 2.41  18 2.41   4 2.41
  47  0.133  0.867  0.569-  25 2.41   2 2.41  18 2.41
  48  0.133  0.867  0.434-  25 2.41   2 2.41  18 2.41
  49  0.333  0.066  0.433-   8 2.40  17 2.40   2 2.41
  50  0.339  0.273  0.566-   7 2.39  15 2.40  17 2.43
  51  0.334  0.068  0.569-   8 2.41  17 2.41   2 2.41
  52  0.133  0.666  0.569-  20 2.41   4 2.41  18 2.41
  53  0.134  0.068  0.568-  24 2.41  17 2.41  25 2.41
  54  0.134  0.066  0.433-  24 2.40  25 2.41  17 2.41
  55  0.136  0.268  0.567-  22 2.41  24 2.41   7 2.42
  56  0.133  0.267  0.432-  22 2.41  24 2.41   7 2.41
  57  0.134  0.466  0.568-  22 2.41   5 2.41  20 2.41
  58  0.134  0.467  0.433-  22 2.40  20 2.41   5 2.41
  59  0.335  0.266  0.431-  15 2.39   7 2.41  17 2.42
  60  0.339  0.466  0.566-   7 2.39  13 2.40   5 2.43
  61  0.534  0.273  0.566-  12 2.39  15 2.40   8 2.43
  62  0.532  0.266  0.431-  15 2.39  12 2.41   8 2.42
  63  0.533  0.467  0.428-  13 2.38  14 2.38  15 2.38
  64  0.534  0.661  0.566-   1 2.39  13 2.40  11 2.43
  65  0.532  0.665  0.431-  13 2.39   1 2.41  11 2.42
  66  0.534  0.866  0.568-   3 2.41  11 2.41  10 2.41
  67  0.335  0.468  0.431-  13 2.39   7 2.41   5 2.42
  68  0.334  0.666  0.569-  11 2.41   5 2.41   4 2.41
  69  0.333  0.667  0.433-  11 2.40   5 2.40   4 2.41
  70  0.334  0.867  0.569-  10 2.41   4 2.41   2 2.41
  71  0.333  0.867  0.434-  10 2.41   2 2.41   4 2.41
  72  0.534  0.068  0.568-   9 2.41   8 2.41  10 2.41
  73  0.533  0.066  0.433-   9 2.40  10 2.41   8 2.41
  74  0.934  0.866  0.433-  23 2.40  25 2.41  19 2.41

  LATTYP: Found a hexagonal cell.
 ALAT       =    15.8227970706
 C/A-ratio  =     1.4623157837

  Lattice vectors:

 A1 = (   7.9113985353, -13.7029442220,   0.0000000000)
 A2 = (   7.9113985353,  13.7029442220,   0.0000000000)
 A3 = (   0.0000000000,   0.0000000000,  23.1379258980)

Analysis of symmetry for initial positions (statically):
 Subroutine PRICEL returns:
 Original cell was already a primitive cell.

 Routine SETGRP: Setting up the symmetry group for a
[...]
  306        strehar                               0.014427                            1   3
  307          m_sumb_d                              0.001731                          1   4
  308        chggra                                0.045593                            1   3
  309          fft3d_mpi                             0.030009                          3   4
  310            fftbrc_mpi                            0.028470                        3   5
  311              fftbas_plan_mpi                       0.028461                      3   6
  312                dfftw_execute                         0.007447                    9   7
  313                map_backward                          0.006996                    2   7
  314                  map_gather                            0.000867                  1   8
  315                  m_alltoallv_z                         0.003674                  1   8
  316                  map_scatter                           0.002427                  1   8
  317                map_forward                           0.012246                    4   7
  318                  map_gather                            0.004354                  2   8
  319                  m_alltoallv_z                         0.006535                  2   8
  320                  map_scatter                           0.001317                  2   8
  321          m_sumb_d                              0.000101                          2   4
  322          pothar                                0.004188                          1   4
  323            m_sumb_d                              0.001648                        1   5
  324        brmix                                 0.108902                            1   3
  325          m_sumb_d                              0.003699                          6   4
  326          brpre                                 0.000235                          2   4
  327          setg0                                 0.006840                          1   4
  328          broyd                                 0.054351                          1   4
  329            m_sumb_d                              0.003464                       39   5
  330            brget                                 0.011087                      201   5
  331            brsav                                 0.003272                       37   5
  332          m_bcast_z                             0.034413                          1   4
  333          m_bcast_d                             0.000163                          1   4
  334        m_bcast_d                             0.008453                            2   3
  335      potlok                                6.491546                              1   2
  336        fft3d_mpi                             0.864221                           86   3
  337          fftbrc_mpi                            0.815701                         86   4
  338            fftbas_plan_mpi                       0.815431                       86   5
  339              dfftw_execute                         0.205593                    258   6
  340              map_forward                           0.236534                     88   6
  341                map_gather                            0.065573                   46   7
  342                m_alltoallv_z                         0.139473                   46   7
  343                map_scatter                           0.030558                   46   7
  344              map_backward                          0.321841                     84   6
  345                map_gather                            0.031856                   42   7
  346                m_alltoallv_z                         0.151490                   42   7
  347                map_scatter                           0.137675                   42   7
  348        m_sumb_d                              0.013615                            8   3
  349        fewald                                0.001588                            2   3
  350          rsp                                   0.001368                          2   4
  351          rcp                                   0.000193                          2   4
  352        pothar                                0.002156                            1   3
  353          m_sumb_d                              0.000462                          1   4
  354        m_bcast_d                             0.003757                            2   3
  355      potlok_metagga                        0.000001                              1   2
  356      set_dd_magatom                        0.000001                              1   2
  357      set_dd_paw                            2.810106                              1   2
  358        set_rsgf_all                          0.000001                            1   3
  359        m_sumb_d                              2.809632                            8   3
  360      densta                              131.290243                              1   2
  361        m_bcast_z                             0.000584                            1   3

 Flat profile

 total_time                            597.539074           1
 ggemm                                 480.201733       31895
 dfftw_execute                         214.762705      443904
 potlok                                191.442880          34
 densta                                145.154043          38
 orth1                                 138.434542       72209
 m_sumb_d                              137.733424      278932
 m_alltoallv_z                          95.290392      148102
 eddav                                  94.880976          37
 fftbas_plan_mpi                        75.700462      147968
 m_alltoall_d                           73.215977      354522
 fftwav_mpi                             55.562583       96720
 map_scatter                            50.699967      148102
 m_bcast_z                              47.423242       36882
 map_gather                             46.741591      148102
 vhamil                                 41.087438       48102
 set_charge                             35.631509          33
 map_forward                            34.588647      196526
 sphpro_fast                            21.658456           2
 lincom                                 21.034334         152
 lapack                                 16.614708       24051
 crrexp_mul_work_add                    13.093193     3559548
 gemm                                   12.714291     1779774
 rpromu_gemm                             9.191990     1303214
 eccp                                    8.533739       15688
 racc0mu                                 8.388081       24051
 w1_copy                                 8.320885      144306
 crrexp_mul_wave                         7.291842     2806524
 redis_pw                                7.182688      128922
 rpromu                                  6.436428       17611
 pw_charge                               6.285220       10692
 fftext_mpi                              5.591198       48102
 force_and_stress                        5.581907           1
 kinhamil                                3.660720       48102
 apply_precond                           2.952314       32414
 m_bcast_d                               2.456952       48209
 fft3d_mpi                               2.211660      147968
 redis_proj                              1.996491      161340
 setup_precond                           1.840927       15688
 overl                                   1.694806       80520
 setdij_                                 1.124710          61
 augmentation_charge                     1.024315          33
 map_backward                            0.912995       99410
 overl1                                  0.811652       48102
 hamiltmu                                0.646795       24051
 newband                                 0.595430       24199
 phaser                                  0.568666         174
 broyd                                   0.490211          33
 forhar                                  0.477288           2
 fftbas_mpi                              0.437396      144822
 elmin                                   0.421685           1
 brmix                                   0.342768          33
 raccmu_                                 0.292340       24051
 forloc                                  0.251574           1
 soft_charge                             0.247347          33
 setg0                                   0.238724          35
 brget                                   0.171946        3108
 rspher_all                              0.159788          14
 stufak                                  0.152735           1
 w1_projall                              0.110212       16207
 choleski                                0.101143           4
 brsav                                   0.088114         699
 depsum                                  0.086093          33
 inisym                                  0.081097           1
 truncate_high_frequency_w1              0.062112       63790
 pothar                                  0.060066          35
 rsp                                     0.047462          69
 rpro_isp                                0.045864          26
 strnlr                                  0.030887           1
 strkin                                  0.026723           1
 strelo                                  0.013093           1
 strehar                                 0.012696           1
 set_dd_paw                              0.011847          35
 chggra                                  0.011295           1
 fornlr                                  0.010840           1
 fft_gq                                  0.009328          33
 fftbrc_mpi                              0.009046        3146
 brpre                                   0.008411          66
 rcp                                     0.007093          69
 fewald                                  0.006809          69
 orthch                                  0.004340           1
 brgrid                                  0.003388           1
 vectorpot                               0.000690          34
 posmap                                  0.000277           2
 crpa_reader                             0.000262           1
 fordep                                  0.000195           1
 potlok_metagga                          0.000151          34
 set_rsgf_all                            0.000125          35
 proall                                  0.000075           1
 set_dd_magatom                          0.000044          35
 rotate_active_occupied_orbital          0.000018           1
 redis_pw_over_bands                     0.000001           1
  summed up times    2741.04217600822

 Accumulative profile

 total_time                           2741.042176           1
 elmin                                1892.001092           1
 eddav                                1477.270121          37
 fft3d_mpi                             521.354859      147968
 fftbas_plan_mpi                       518.696758      147968
 fftbas_mpi                            487.825051      144822
 ggemm                                 480.201733       31895
 fftwav_mpi                            390.174287       96720
 hamiltmu                              245.919439       24051
 potlok                                222.929057          34
 dfftw_execute                         214.762705      443904
 kinhamil                              163.032097       48102
 fftext_mpi                            159.371377       48102
 map_forward                           156.268804      196526
 densta                                145.168123          38
 orth1                                 138.434542       72209
 m_sumb_d                              137.733424      278932
 set_dd_paw                             99.180912          35
 m_alltoallv_z                          95.290392      148102
 set_charge                             90.589028          33
 newband                                85.784502       24199
 m_alltoall_d                           73.215977      354522
 map_backward                           71.964787       99410
 redis_pw                               59.560811      128922
 map_scatter                            50.699967      148102
 soft_charge                            50.532354          33
 m_bcast_z                              47.423242       36882
 map_gather                             46.741591      148102
 raccmu_                                41.153110       24051
 vhamil                                 41.087438       48102
 racc0mu                                40.049117       24051
 force_and_stress                       38.172306           1
 fftbrc_mpi                             31.318148        3146
 rpromu                                 26.951645       17611
 rpro_isp                               26.271969          26
 w1_projall                             23.648293       16207
 redis_proj                             22.834345      161340
 sphpro_fast                            21.984009           2
 lincom                                 21.034334         152
 strnlr                                 18.503105           1
 lapack                                 16.614708       24051
 crrexp_mul_work_add                    13.093193     3559548
 gemm                                   12.714291     1779774
 eccp                                    9.369338       15688
 rpromu_gemm                             9.191990     1303214
 w1_copy                                 8.320885      144306
 crrexp_mul_wave                         7.291842     2806524
 pw_charge                               6.285220       10692
 fornlr                                  6.149125           1
 apply_precond                           2.952314       32414
 setup_precond                           2.470918       15688
 m_bcast_d                               2.456952       48209
 proall                                  2.060164           1
 brmix                                   1.958563          33
 augmentation_charge                     1.874177          33
 overl                                   1.694806       80520
 setdij_                                 1.228920          61
 orthch                                  1.118273           1
 broyd                                   0.840959          33
 overl1                                  0.811652       48102
 phaser                                  0.568666         174
 fewald                                  0.519106          69
 forhar                                  0.482936           2
 depsum                                  0.367482          33
 fft_gq                                  0.256873          33
 forloc                                  0.251739           1
 setg0                                   0.238724          35
 brget                                   0.171946        3108
 rspher_all                              0.159788          14
 stufak                                  0.152735           1
 fordep                                  0.119813           1
 choleski                                0.101143           4
 pothar                                  0.094622          35
 brsav                                   0.088114         699
 inisym                                  0.081374           1
 truncate_high_frequency_w1              0.062112       63790
 rsp                                     0.047462          69
 chggra                                  0.045593           1
 strkin                                  0.027527           1
 strelo                                  0.014464           1
 strehar                                 0.014427           1
 brpre                                   0.008411          66
 rcp                                     0.007093          69
 brgrid                                  0.003388           1
 vectorpot                               0.000690          34
 posmap                                  0.000277           2
 crpa_reader                             0.000262           1
 potlok_metagga                          0.000151          34
 set_rsgf_all                            0.000125          35
 set_dd_magatom                          0.000044          35
 rotate_active_occupied_orbital          0.000018           1
 redis_pw_over_bands                     0.000001           1

Profiling took   7.822965  3.974784  0.009066  0.008341 seconds
Profiling took   7.798309 seconds