 vasp.6.3.2 27Jun22 (build Jan 03 2024 23:05:41) complex

 executed on           IFC15_impi date 2024.07.29  09:19:25

 INCAR:
   ENCUT = 600.00
   EDIFF = 1.00e-06
   EDIFFG = -0.05
   ALGO = Normal
   ISMEAR = 0
   SIGMA = 0.05
   LCHARG = .FALSE.
   LWAVE = .FALSE.
   LREAL = Auto
   NELM = 2000
   NSW = 5000
   NCORE = 16
   KPAR = 8
   GGA = MK
   PARAM1 = 0.1234
   PARAM2 = 1.0
   AGGAC = 0.0
   LUSE_VDW = .TRUE.
   LASPH = .TRUE.
   LDIPOL = .TRUE.
   DIPOL = 0.5 0.5 0.5
   IDIPOL = 3
   IBRION = 44
   POTIM = 0.015

 POTCAR:    PAW_PBE Mo_sv 02Feb2006
 POTCAR:    PAW_PBE S 06Sep2000
 POTCAR:    PAW_PBE C 08Apr2002
 POTCAR:    PAW_PBE H 15Jun2001
 POTCAR:    PAW_PBE N 08Apr2002
|               ----> ADVICE to this user running VASP <----                  |
|     You have switched on vdW-DFT.                                           |
|     This routine was written and supplied by Jiri Klimes. We recommend      |
|     that you carefully read and cite the following publications:            |
|       J. Klimes, D.R. Bowler, A. Michelides                                 |
|          J. Phys.: Cond Matt. 22 022201 (2010)                              |
|       J. Klimes, D.R. Bowler, A. Michelides                                 |
|          Phys. Rev. B. 83, 195131 (2011)                                    |
|     and references therein.                                                 |

   TITEL  = PAW_PBE Mo_sv 02Feb2006
   POMASS =   95.940; ZVAL   =   14.000    mass and valenz
   ENMAX  =  242.676; ENMIN  =  182.007 eV

   TITEL  = PAW_PBE S 06Sep2000
   POMASS =   32.066; ZVAL   =    6.000    mass and valenz
   ENMAX  =  258.689; ENMIN  =  194.016 eV

   TITEL  = PAW_PBE C 08Apr2002
   POMASS =   12.011; ZVAL   =    4.000    mass and valenz
   ENMAX  =  400.000; ENMIN  =  300.000 eV

   TITEL  = PAW_PBE H 15Jun2001
   POMASS =    1.000; ZVAL   =    1.000    mass and valenz
   ENMAX  =  250.000; ENMIN  =  200.000 eV

   TITEL  = PAW_PBE N 08Apr2002
   POMASS =   14.001; ZVAL   =    5.000    mass and valenz
   ENMAX  =  400.000; ENMIN  =  300.000 eV

 Optimization of the real space projectors (new method)

 maximal supplied QI-value         = 15.12
 optimisation between [QCUT,QGAM] = [ 12.55, 25.10] = [ 44.09,176.36] Ry
 Optimized for a Real-space Cutoff    1.47 Angstroem

   l    n(q)    QCUT    max X(q) W(low)/X(q) W(high)/X(q)  e(spline)
   0     11    12.548     3.559    0.18E-04    0.60E-05    0.19E-06
   0     11    12.548    20.730    0.37E-04    0.13E-04    0.98E-07
   1     11    12.548     3.279    0.80E-06    0.70E-06    0.27E-07
   1     11    12.548     4.693    0.72E-04    0.11E-03    0.38E-06
   2     10    12.548    67.616    0.34E-03    0.45E-03    0.54E-06
   2     10    12.548    62.420    0.34E-03    0.45E-03    0.54E-06
 Optimization of the real space projectors (new method)

[...]

   l    n(q)    QCUT    max X(q) W(low)/X(q) W(high)/X(q)  e(spline)
   0      7    12.313    19.460    0.14E-03    0.42E-03    0.16E-06
   0      7    12.313    12.209    0.12E-03    0.40E-03    0.16E-06
   1      7    12.313     4.655    0.33E-03    0.59E-03    0.89E-07
 Optimization of the real space projectors (new method)

 maximal supplied QI-value         = 25.13
 optimisation between [QCUT,QGAM] = [ 12.32, 24.88] = [ 42.47,173.37] Ry
 Optimized for a Real-space Cutoff    1.20 Angstroem

   l    n(q)    QCUT    max X(q) W(low)/X(q) W(high)/X(q)  e(spline)
   0      9    12.315    79.467    0.14E-03    0.22E-04    0.37E-06
   0      9    12.315    66.151    0.14E-03    0.23E-04    0.36E-06
   1      8    12.315    22.077    0.30E-03    0.54E-03    0.45E-06
   1      8    12.315    15.894    0.30E-03    0.55E-03    0.45E-06
|               ----> ADVICE to this user running VASP <----                  |
|     You enforced a specific xc type in the INCAR file but a different       |
|     type was found in the POTCAR file.                                      |
|     I HOPE YOU KNOW WHAT YOU ARE DOING!                                     |

  PAW_PBE Mo_sv 02Feb2006               :
  PAW_PBE S 06Sep2000                   :
  PAW_PBE C 08Apr2002                   :
  PAW_PBE H 15Jun2001                   :
  PAW_PBE N 08Apr2002                   :

 POSCAR: Mo S  H  C  H  N
  positions in direct lattice
  velocities in cartesian coordinates
 exchange correlation table for  LEXCH =       43
   RHO(1)=    0.500       N(1)  =     2000
   RHO(2)=  100.500       N(2)  =     4000

 VTST: version 4.1, (05/19/21)

 CHAIN: initializing optimizer

 OPT: Using VASP Dynamics algorithm
 CHAIN: Read ICHAIN            0

 POSCAR: Mo S  H  C  H  N
  positions in direct lattice
  velocities in cartesian coordinates

 ion  position               nearest neighbor table
   1  0.933  0.665  0.500- 183 2.41  88 2.41 214 2.41 158 2.41 184 2.41 176 2.41  59 3.16   6 3.16
                            20 3.16  21 3.16  27 3.16  26 3.16
   2  0.865  0.531  0.671- 161 2.41 215 2.41 182 2.41 172 2.41 210 2.41 218 2.42   8 3.16  11 3.17
                             4 3.17   5 3.17  56 3.17  62 3.17
   3  0.066  0.533  0.330- 209 2.41 193 2.41  99 2.41 111 2.41 160 2.41 105 2.41  39 3.16   7 3.16
                            30 3.16  52 3.16  13 3.17  22 3.17
   4  0.066  0.531  0.670- 143 2.41 161 2.41 106 2.41 204 2.41 210 2.41  90 2.41  44 3.16   8 3.16
                            14 3.16  11 3.16   2 3.17  40 3.17
   5  0.867  0.732  0.670- 207 2.40 112 2.40 185 2.41 148 2.41 172 2.41 182 2.41  28 3.14   8 3.15
                            18 3.17   2 3.17  46 3.18  56 3.18
   6  0.133  0.665  0.500- 141 2.41  92 2.41 104 2.41  88 2.41 125 2.41 184 2.41  12 3.16   1 3.16
                            27 3.16  26 3.16  48 3.17  41 3.17
   7  0.866  0.333  0.330- 174 2.41 213 2.41 209 2.41 168 2.41 160 2.41 151 2.41   3 3.16  30 3.16
                            37 3.16  63 3.16  22 3.17  73 3.17
   8  0.065  0.731  0.670- 188 2.41 182 2.41 143 2.41 172 2.41 204 2.41 191 2.41   5 3.15  50 3.16
                            44 3.16   4 3.16   2 3.16  28 3.17
   9  0.264  0.130  0.668- 200 2.39  98 2.40  95 2.40 145 2.41 197 2.41  77 2.42  33 3.13  28 3.14
                            19 3.15  50 3.16  35 3.17  75 3.19
  10  0.933  0.065  0.500-  93 2.41 170 2.41 220 2.41  96 2.41 149 2.41 179 2.41  32 3.16  57 3.16
                            21 3.17  53 3.17  47 3.17  16 3.17
  11  0.866  0.331  0.670- 210 2.41 175 2.41 211 2.41 178 2.41 161 2.41 169 2.41  36 3.16  14 3.16
                             4 3.16   2 3.17  72 3.17  62 3.17
  12  0.133  0.466  0.500- 104 2.41 101 2.41 100 2.41 138 2.41  92 2.41  78 2.41   6 3.16  41 3.16
                            16 3.16  38 3.16  27 3.17  53 3.17
  13  0.066  0.733  0.330- 173 2.41 193 2.41 190 2.41 152 2.41 111 2.41 187 2.41  52 3.16  49 3.16
                            22 3.16  23 3.17  29 3.17   3 3.17
  14  0.066  0.331  0.670-  90 2.40 103 2.41 178 2.41 211 2.41 107 2.41 106 2.41  36 3.16   4 3.16
                            11 3.16  40 3.17  19 3.17  35 3.17
  15  0.066  0.133  0.330- 102 2.41 180 2.41  97 2.41  91 2.41  94 2.41 221 2.41  29 3.16  24 3.16
                            34 3.16  17 3.16  30 3.16  37 3.17
  16  0.133  0.266  0.500- 101 2.41  93 2.41 201 2.41 100 2.41  96 2.41 198 2.41  53 3.16  12 3.16
                            42 3.16  32 3.17  38 3.17  10 3.17
  17  0.866  0.933  0.330-  85 2.41 180 2.41 162 2.41 221 2.41 147 2.41 156 2.41  54 3.16  37 3.16
                            23 3.16  43 3.16  15 3.16  29 3.17
  18  0.866  0.932  0.670- 154 2.40 155 2.41 157 2.41 148 2.41 181 2.41 112 2.41  46 3.15  19 3.16
                            36 3.16  28 3.16  45 3.16   5 3.17
  19  0.065  0.131  0.669-  95 2.41 154 2.41 181 2.41 107 2.41 103 2.41  98 2.41   9 3.15  18 3.16
                            36 3.16  28 3.16  14 3.17  35 3.17
  20  0.733  0.665  0.500- 214 2.41 217 2.41 186 2.41 144 2.41 176 2.41 222 2.41  64 3.16  59 3.16
                            65 3.16   1 3.16  21 3.16  47 3.16
  21  0.933  0.865  0.500- 194 2.41 176 2.41 149 2.41 179 2.41 189 2.41 214 2.41  47 3.16   1 3.16
                            20 3.16  26 3.16  10 3.17  32 3.17
  22  0.866  0.533  0.330- 209 2.41 216 2.41 173 2.41 152 2.41 160 2.41 219 2.41  23 3.16  58 3.16
                            63 3.16  13 3.16   3 3.17   7 3.17
  23  0.866  0.733  0.330-  85 2.41 224 2.41 173 2.41 147 2.41 208 2.41 152 2.41  22 3.16  58 3.16
                            29 3.16  17 3.16  13 3.17  43 3.17
  24  0.266  0.133  0.330- 196 2.41  94 2.41  97 2.41 202 2.41 199 2.41 195 2.41  51 3.16  34 3.16
                            49 3.16  15 3.16  71 3.17  29 3.17
  25  0.333  0.065  0.500- 117 2.41 120 2.41 192 2.41 203 2.41 114 2.41 123 2.41  48 3.16  26 3.16
                            32 3.17  55 3.17  31 3.17  42 3.17
  26  0.133  0.865  0.500- 184 2.41 194 2.41  88 2.41 189 2.41 120 2.41 123 2.41  25 3.16   6 3.16
                            48 3.16   1 3.16  21 3.16  32 3.17
  27  0.933  0.465  0.500- 183 2.41 104 2.41 212 2.41 158 2.41 171 2.41  92 2.41  53 3.16   6 3.16
                            67 3.16   1 3.16  59 3.16  12 3.17
  28  0.065  0.931  0.669- 148 2.40  95 2.41  98 2.41 188 2.41 112 2.41 191 2.41   9 3.14   5 3.14
                            18 3.16  19 3.16  50 3.17   8 3.17
  29  0.066  0.933  0.330-  85 2.41  97 2.41 187 2.41 190 2.41  94 2.41 147 2.41  15 3.16  49 3.16
                            23 3.16  13 3.17  24 3.17  17 3.17
  30  0.066  0.333  0.330-  99 2.41 102 2.41 213 2.41 105 2.41  91 2.41 151 2.41  37 3.16   7 3.16
                             3 3.16  34 3.16  39 3.16  15 3.16
  31  0.533  0.265  0.500- 117 2.41 177 2.41 136 2.41  89 2.41 114 2.41 167 2.41  55 3.16  59 3.16
                            65 3.16  67 3.17  42 3.17  25 3.17
  32  0.133  0.066  0.500-  96 2.41 192 2.41  93 2.41 189 2.41 203 2.41 194 2.41  10 3.16  26 3.17
                            25 3.17  16 3.17  21 3.17  42 3.17
  33  0.463  0.326  0.668- 233 2.19  76 2.36  81 2.42 200 2.43  77 2.44  84 2.44 225 3.07   9 3.13
                            75 3.13  62 3.16  35 3.16  56 3.24  61 3.24
  34  0.266  0.333  0.330- 102 2.41 139 2.41 202 2.41 199 2.41  79 2.41  91 2.41  60 3.16  24 3.16
                            39 3.16  30 3.16  15 3.16  51 3.17
  35  0.266  0.331  0.670- 200 2.39 140 2.40 107 2.41 103 2.41  80 2.42  77 2.42  33 3.16   9 3.17
                            19 3.17  40 3.17  14 3.17  61 3.18
  36  0.866  0.131  0.670- 154 2.41 153 2.41 178 2.41 181 2.41 211 2.41 165 2.41  18 3.16  11 3.16
                            45 3.16  14 3.16  72 3.16  19 3.16
  37  0.866  0.133  0.330- 164 2.41 180 2.41 213 2.41 221 2.41 146 2.41 151 2.41  30 3.16   7 3.16
                            73 3.16  17 3.16  15 3.17  54 3.17
  38  0.333  0.466  0.500- 198 2.41 201 2.41  82 2.41  86 2.41 138 2.41  78 2.41  64 3.16  41 3.16
                            65 3.16  12 3.16  42 3.17  16 3.17
  39  0.266  0.533  0.330- 109 2.41  79 2.41 139 2.41  99 2.41 105 2.41 127 2.41   3 3.16  34 3.16
                            60 3.16  74 3.16  30 3.16  52 3.17
  40  0.266  0.531  0.671- 106 2.41 140 2.41 126 2.41 124 2.41  90 2.41  80 2.42  44 3.16  14 3.17
[...]
  303          m_sumb_d                              0.000593                          1   4
  304        chggra                                0.035371                            1   3
  305          fft3d_mpi                             0.025595                          3   4
  306            fftbrc_mpi                            0.024024                        3   5
  307              fftbas_plan_mpi                       0.024016                      3   6
  308                dfftw_execute                         0.006471                    9   7
  309                map_backward                          0.005117                    2   7
  310                  map_gather                            0.000665                  1   8
  311                  m_alltoallv_z                         0.003627                  1   8
  312                  map_scatter                           0.000797                  1   8
  313                map_forward                           0.010423                    4   7
  314                  map_gather                            0.001337                  2   8
  315                  m_alltoallv_z                         0.007596                  2   8
  316                  map_scatter                           0.001450                  2   8
  317          m_sumb_d                              0.000122                          2   4
  318          pothar                                0.001981                          1   4
  319            m_sumb_d                              0.000645                        1   5
  320        brmix                                 1.831192                            1   3
  321          m_sumb_d                              0.000715                          6   4
  322          brpre                                 0.000220                          1   4
  323          setg0                                 0.006401                          1   4
  324          broyd                                 0.014186                          1   4
  325            m_sumb_d                              0.002335                       35   5
  326            brget                                 0.002420                      149   5
  327            brsav                                 0.000596                       33   5
  328          m_bcast_z                             1.804639                          1   4
  329          m_bcast_d                             0.000164                          1   4
  330        m_bcast_d                             0.001134                            2   3
  331      potlok                                5.511643                              1   2
  332        fft3d_mpi                             0.732971                           73   3
  333          fftbrc_mpi                            0.695285                         73   4
  334            fftbas_plan_mpi                       0.695063                       73   5
  335              dfftw_execute                         0.150416                    219   6
  336              map_forward                           0.302173                     74   6
  337                map_gather                            0.020782                   38   7
  338                m_alltoallv_z                         0.253818                   38   7
  339                map_scatter                           0.026782                   38   7
  340              map_backward                          0.195498                     72   6
  341                map_gather                            0.022902                   36   7
  342                m_alltoallv_z                         0.144976                   36   7
  343                map_scatter                           0.026932                   36   7
  344        ggaall_grid                           0.198287                            1   3
  345        m_sumb_d                              0.004086                            8   3
  346        fewald                                0.001682                            2   3
  347          rsp                                   0.001569                          2   4
  348          rcp                                   0.000099                          2   4
  349        pothar                                0.001793                            1   3
  350          m_sumb_d                              0.000424                          1   4
  351        m_bcast_d                             0.003285                            1   3
  352      potlok_metagga                        0.000002                              1   2
  353      set_dd_magatom                        0.000001                              1   2
  354      set_dd_paw                            1.196439                              1   2
  355        set_rsgf_all                          0.000002                            1   3
  356        m_sumb_d                              1.196100                            8   3
  357      densta                                0.107674                              1   2
  358        m_sumb_d                              0.107065                           10   3

 Flat profile

 ggemm                                 517.921417       20965
 eddav                                 404.800902          33
 total_time                            241.967804           1
 orth1                                 188.015189       48182
 potlok                                140.177250          30
 dfftw_execute                         113.766612      153336
 m_sumb_d                               96.313810      118110
 m_alltoall_d                           60.903476      117998
 m_alltoallv_z                          49.770415       51171
 m_bcast_z                              32.387436       22818
 fftbas_plan_mpi                        29.065507       51112
 lincom                                 28.256253          34
 map_scatter                            25.832183       51171
 map_gather                             25.680758       51171
 racc0                                  24.474036       16048
 fftwav_mpi                             18.192595       32741
 rpro1                                  17.368128       11131
 crrexp_mul_work_add                    15.337153     3819424
 lapack                                 12.253907       16048
 map_forward                            12.145794       67778
 vhamil                                 10.723382       16048
 crrexp_mul_wave                         8.894691     3110184
 ggaall_grid                             6.123900          31
 force_and_stress                        4.608679           1
 redis_pw                                3.915111       43295
 w1_copy                                 3.495752       48144
 eccp                                    3.027233        4917
 fftext_mpi                              2.810287       16048
 m_bcast_d                               2.119218       32161
 pw_charge                               2.095212        3625
 fft3d_mpi                               1.397879       51112
 kinhamil                                1.322216       16048
 rpromu_gemm                             1.274233      117572
 setdij_                                 1.259026          57
 forhar                                  1.245882           2
 apply_precond                           1.054751       11131
 redis_proj                              0.961426       54427
 overl                                   0.950580       27180
 rpromu                                  0.891832         494
 setup_precond                           0.887054        4917
 augmentation_charge                     0.825438          29
 forloc                                  0.628229           1
 overl1                                  0.605395       16048
 rspher_all                              0.483867          14
 phaser                                  0.452241          46
 stufak                                  0.392100           1
 map_backward                            0.364390       34446
 elmin                                   0.262815           1
 hamiltmu                                0.261786       16048
 choleski                                0.259732           1
 newband                                 0.212190       16081
 raccmu_                                 0.166767       16048
 fftbas_mpi                              0.151293       48789
 setg0                                   0.145967          30
 brmix                                   0.140313          29
 broyd                                   0.104712          29
 soft_charge                             0.080047          29
 inisym                                  0.059498           1
 w1_projall                              0.057798       11131
 depsum                                  0.055797          29
 rsp                                     0.052685          61
 pothar                                  0.043362          31
 brget                                   0.033677        2285
 densta                                  0.029863          34
 orthch                                  0.026533           1
 strnlr                                  0.026081           1
 truncate_high_frequency_w1              0.023894       20965
 rpro_isp                                0.022624          13
 strehar                                 0.015419           1
 strelo                                  0.015081           1
 strkin                                  0.014915           1
 brsav                                   0.014155         556
 brpre                                   0.013507          29
 set_charge                              0.011342          29
 fornlr                                  0.008616           1
 fewald                                  0.008039          61
 set_dd_paw                              0.007925          31
 chggra                                  0.007673           1
 fftbrc_mpi                              0.007590        2323
 fft_gq                                  0.005931          29
 rcp                                     0.003676          61
 brgrid                                  0.001202           1
 crpa_reader                             0.000242           1
 fordep                                  0.000218           1
 posmap                                  0.000114           2
 set_rsgf_all                            0.000077          31
 proall                                  0.000065           1
 vectorpot                               0.000061          30
 potlok_metagga                          0.000046          30
 set_dd_magatom                          0.000045          31
 rotate_active_occupied_orbital          0.000015           1
 redis_pw_over_bands                     0.000001           1
  summed up times    2119.79402399063

 Accumulative profile

 total_time                           2119.794024           1
 elmin                                1786.091854           1
 eddav                                1569.412872          33
 ggemm                                 517.921417       20965
 fft3d_mpi                             258.182421       51112
 fftbas_plan_mpi                       256.625659       51112
 fftbas_mpi                            237.113268       48789
 orth1                                 188.015189       48182
 fftwav_mpi                            186.658238       32741
 potlok                                166.134045          30
 hamiltmu                              128.754901       16048
 dfftw_execute                         113.766612      153336
 m_sumb_d                               96.313810      118110
 map_forward                            83.737255       67778
 kinhamil                               72.991744       16048
 fftext_mpi                             71.669528       16048
 m_alltoall_d                           60.903476      117998
 redis_pw                               50.390466       43295
 m_alltoallv_z                          49.770415       51171
 raccmu_                                44.777988       16048
 racc0                                  44.005826       16048
 newband                                36.267907       16081
 set_dd_paw                             33.541527          31
 m_bcast_z                              32.387436       22818
 map_backward                           30.056286       34446
 lincom                                 28.256253          34
 w1_projall                             26.870011       11131
 rpro1                                  26.812213       11131
 force_and_stress                       26.478695           1
 map_scatter                            25.832183       51171
 map_gather                             25.680758       51171
 set_charge                             23.394343          29
 soft_charge                            22.145183          29
 fftbrc_mpi                             19.671274        2323
 redis_proj                             15.389546       54427
 crrexp_mul_work_add                    15.337153     3819424
 rpro_isp                               13.587379          13
 lapack                                 12.253907       16048
 vhamil                                 10.723382       16048
 strnlr                                 10.366088           1
 crrexp_mul_wave                         8.894691     3110184
 ggaall_grid                             6.123900          31
 fornlr                                  4.462360           1
 rpromu                                  3.627495         494
 w1_copy                                 3.495752       48144
 eccp                                    3.454359        4917
 brmix                                   2.622478          29
 m_bcast_d                               2.119218       32161
 pw_charge                               2.095212        3625
 orthch                                  1.735433           1
 setdij_                                 1.486027          57
 rpromu_gemm                             1.274233      117572
 forhar                                  1.246337           2
 augmentation_charge                     1.146230          29
 proall                                  1.111933           1
 setup_precond                           1.068480        4917
 apply_precond                           1.054751       11131
 overl                                   0.950580       27180
 forloc                                  0.630118           1
 overl1                                  0.605395       16048
 rspher_all                              0.483867          14
 phaser                                  0.452241          46
 stufak                                  0.392100           1
 choleski                                0.259732           1
 densta                                  0.232067          34
 broyd                                   0.201566          29
 fordep                                  0.155641           1
 setg0                                   0.145967          30
 fft_gq                                  0.122237          29
 fewald                                  0.111882          61
 depsum                                  0.091588          29
 pothar                                  0.063361          31
 inisym                                  0.059612           1
 rsp                                     0.052685          61
 chggra                                  0.035371           1
 brget                                   0.033677        2285
 truncate_high_frequency_w1              0.023894       20965
 strkin                                  0.016302           1
 strehar                                 0.016012           1
 strelo                                  0.015391           1
 brsav                                   0.014155         556
 brpre                                   0.013507          29
 rcp                                     0.003676          61
 brgrid                                  0.001202           1
 crpa_reader                             0.000242           1
 posmap                                  0.000114           2
 set_rsgf_all                            0.000077          31
 vectorpot                               0.000061          30
 potlok_metagga                          0.000046          30
 set_dd_magatom                          0.000045          31
 rotate_active_occupied_orbital          0.000015           1
 redis_pw_over_bands                     0.000001           1

Profiling took   4.532276  2.630946  0.008863  0.008166 seconds
Profiling took   4.473989 seconds