 vasp.6.3.2 27Jun22 (build Jan 03 2024 23:05:41) complex

 executed on           IFC15_impi date 2024.07.16  22:04:54

 INCAR:
   ENCUT = 600.00
   EDIFF = 1.00e-06
   EDIFFG = -0.05
   ALGO = Normal
   ISMEAR = 0
   SIGMA = 0.05
   LCHARG = .FALSE.
   LWAVE = .FALSE.
   LREAL = Auto
   NELM = 2000
   NSW = 5000
   NCORE = 16
   KPAR = 8
   ISPIN = 2
   GGA = MK
   PARAM1 = 0.1234
   PARAM2 = 1.0
   AGGAC = 0.0
   LUSE_VDW = .TRUE.
   LASPH = .TRUE.
   LDIPOL = .TRUE.
   DIPOL = 0.5 0.5 0.5
   IDIPOL = 3
   IBRION = 44
   POTIM = 0.015

 POTCAR:    PAW_PBE Mo_sv 02Feb2006
 POTCAR:    PAW_PBE S 06Sep2000
 POTCAR:    PAW_PBE C 08Apr2002
 POTCAR:    PAW_PBE F 08Apr2002
 POTCAR:    PAW_PBE H 15Jun2001
|           W    W    AA    RRRRR   N    N  II  N    N   GGGG   !!!           |
|           W    W   A  A   R    R  NN   N  II  NN   N  G    G  !!!           |
|           W    W  A    A  R    R  N N  N  II  N N  N  G       !!!           |
|           W WW W  AAAAAA  RRRRR   N  N N  II  N  N N  G  GGG   !            |
|           WW  WW  A    A  R   R   N   NN  II  N   NN  G    G                |
|           W    W  A    A  R    R  N    N  II  N    N   GGGG   !!!           |
|     You use a magnetic or noncollinear calculation, but did not specify     |
|     the initial magnetic moment with the MAGMOM tag. Note that a            |
|     default of 1 will be used for all atoms. This ferromagnetic setup       |
|     may break the symmetry of the crystal, in particular it may rule        |
|     out finding an antiferromagnetic solution. Thence, we recommend         |
|     setting the initial magnetic moment manually or verifying carefully     |
|     that this magnetic setup is desired.                                    |

   TITEL  = PAW_PBE Mo_sv 02Feb2006
   POMASS =   95.940; ZVAL   =   14.000    mass and valenz
   ENMAX  =  242.676; ENMIN  =  182.007 eV

   TITEL  = PAW_PBE S 06Sep2000
   POMASS =   32.066; ZVAL   =    6.000    mass and valenz
   ENMAX  =  258.689; ENMIN  =  194.016 eV

   TITEL  = PAW_PBE C 08Apr2002
   POMASS =   12.011; ZVAL   =    4.000    mass and valenz
   ENMAX  =  400.000; ENMIN  =  300.000 eV

   TITEL  = PAW_PBE F 08Apr2002
   POMASS =   18.998; ZVAL   =    7.000    mass and valenz
   ENMAX  =  400.000; ENMIN  =  300.000 eV

   TITEL  = PAW_PBE H 15Jun2001
   POMASS =    1.000; ZVAL   =    1.000    mass and valenz
   ENMAX  =  250.000; ENMIN  =  200.000 eV

 Optimization of the real space projectors (new method)

 maximal supplied QI-value         = 15.12
 optimisation between [QCUT,QGAM] = [ 12.55, 25.10] = [ 44.09,176.36] Ry
 Optimized for a Real-space Cutoff    1.47 Angstroem

   l    n(q)    QCUT    max X(q) W(low)/X(q) W(high)/X(q)  e(spline)
   0     11    12.548     3.559    0.18E-04    0.60E-05    0.19E-06
   0     11    12.548    20.730    0.37E-04    0.13E-04    0.98E-07
   1     11    12.548     3.279    0.80E-06    0.70E-06    0.27E-07
   1     11    12.548     4.693    0.72E-04    0.11E-03    0.38E-06
   2     10    12.548    67.616    0.34E-03    0.45E-03    0.54E-06
   2     10    12.548    62.420    0.34E-03    0.45E-03    0.54E-06
 Optimization of the real space projectors (new method)

[...]

   l    n(q)    QCUT    max X(q) W(low)/X(q) W(high)/X(q)  e(spline)
   0      8    12.378    14.049    0.35E-03    0.80E-04    0.14E-06
   0      8    12.378     8.945    0.50E-03    0.13E-03    0.19E-06
   1      7    12.378     7.086    0.49E-03    0.21E-03    0.21E-06
   1      7    12.378     6.747    0.44E-03    0.20E-03    0.19E-06
 Optimization of the real space projectors (new method)

 maximal supplied QI-value         = 34.20
 optimisation between [QCUT,QGAM] = [ 12.31, 24.97] = [ 42.46,174.58] Ry
 Optimized for a Real-space Cutoff    1.00 Angstroem

   l    n(q)    QCUT    max X(q) W(low)/X(q) W(high)/X(q)  e(spline)
   0      7    12.313    19.460    0.14E-03    0.42E-03    0.16E-06
   0      7    12.313    12.209    0.12E-03    0.40E-03    0.16E-06
   1      7    12.313     4.655    0.33E-03    0.59E-03    0.89E-07
|               ----> ADVICE to this user running VASP <----                  |
|     You enforced a specific xc type in the INCAR file but a different       |
|     type was found in the POTCAR file.                                      |
|     I HOPE YOU KNOW WHAT YOU ARE DOING!                                     |

  PAW_PBE Mo_sv 02Feb2006               :
  PAW_PBE S 06Sep2000                   :
  PAW_PBE C 08Apr2002                   :
  PAW_PBE F 08Apr2002                   :
  PAW_PBE H 15Jun2001                   :

 POSCAR: Mo S  H  C  F
  positions in direct lattice
  velocities in cartesian coordinates
 exchange correlation table for  LEXCH =       43
   RHO(1)=    0.500       N(1)  =     2000
   RHO(2)=  100.500       N(2)  =     4000

 VTST: version 4.1, (05/19/21)

 CHAIN: initializing optimizer

 OPT: Using VASP Dynamics algorithm
 CHAIN: Read ICHAIN            0

 POSCAR: Mo S  H  C  F
  positions in direct lattice
  velocities in cartesian coordinates

 ion  position               nearest neighbor table
   1  0.933  0.665  0.500- 183 2.41  88 2.41 214 2.41 158 2.41 184 2.41 176 2.41  59 3.16   6 3.16
                            20 3.16  21 3.16  27 3.16  26 3.16
   2  0.865  0.531  0.671- 161 2.41 215 2.41 182 2.41 172 2.41 210 2.41 218 2.42   8 3.16  11 3.17
                             4 3.17   5 3.17  56 3.17  62 3.17
   3  0.066  0.533  0.330- 209 2.41 193 2.41  99 2.41 111 2.41 160 2.41 105 2.41  39 3.16   7 3.16
                            30 3.16  52 3.16  13 3.17  22 3.17
   4  0.066  0.531  0.670- 143 2.41 161 2.41 106 2.41 204 2.41 210 2.41  90 2.41  44 3.16   8 3.16
                            14 3.16  11 3.16   2 3.17  40 3.17
   5  0.867  0.732  0.670- 207 2.40 112 2.40 185 2.41 148 2.41 172 2.41 182 2.41  28 3.14   8 3.15
                            18 3.17   2 3.17  46 3.18  56 3.18
   6  0.133  0.665  0.500- 141 2.41  92 2.41 104 2.41  88 2.41 125 2.41 184 2.41  12 3.16   1 3.16
                            27 3.16  26 3.16  48 3.17  41 3.17
   7  0.866  0.333  0.330- 174 2.41 213 2.41 209 2.41 168 2.41 160 2.41 151 2.41   3 3.16  30 3.16
                            37 3.16  63 3.16  22 3.17  73 3.17
   8  0.065  0.731  0.670- 188 2.41 182 2.41 143 2.41 172 2.41 204 2.41 191 2.41   5 3.15  50 3.16
                            44 3.16   4 3.16   2 3.16  28 3.17
   9  0.264  0.130  0.668- 200 2.39  98 2.40  95 2.40 145 2.41 197 2.41  77 2.42  33 3.13  28 3.14
                            19 3.15  50 3.16  35 3.17  75 3.19
  10  0.933  0.065  0.500-  93 2.41 170 2.41 220 2.41  96 2.41 149 2.41 179 2.41  32 3.16  57 3.16
                            21 3.17  53 3.17  47 3.17  16 3.17
  11  0.866  0.331  0.670- 210 2.41 175 2.41 211 2.41 178 2.41 161 2.41 169 2.41  36 3.16  14 3.16
                             4 3.16   2 3.17  72 3.17  62 3.17
  12  0.133  0.466  0.500- 104 2.41 101 2.41 100 2.41 138 2.41  92 2.41  78 2.41   6 3.16  41 3.16
                            16 3.16  38 3.16  27 3.17  53 3.17
  13  0.066  0.733  0.330- 173 2.41 193 2.41 190 2.41 152 2.41 111 2.41 187 2.41  52 3.16  49 3.16
                            22 3.16  23 3.17  29 3.17   3 3.17
  14  0.066  0.331  0.670-  90 2.40 103 2.41 178 2.41 211 2.41 107 2.41 106 2.41  36 3.16   4 3.16
                            11 3.16  40 3.17  19 3.17  35 3.17
  15  0.066  0.133  0.330- 102 2.41 180 2.41  97 2.41  91 2.41  94 2.41 221 2.41  29 3.16  24 3.16
                            34 3.16  17 3.16  30 3.16  37 3.17
  16  0.133  0.266  0.500- 101 2.41  93 2.41 201 2.41 100 2.41  96 2.41 198 2.41  53 3.16  12 3.16
                            42 3.16  32 3.17  38 3.17  10 3.17
  17  0.866  0.933  0.330-  85 2.41 180 2.41 162 2.41 221 2.41 147 2.41 156 2.41  54 3.16  37 3.16
                            23 3.16  43 3.16  15 3.16  29 3.17
  18  0.866  0.932  0.670- 154 2.40 155 2.41 157 2.41 148 2.41 181 2.41 112 2.41  46 3.15  19 3.16
                            36 3.16  28 3.16  45 3.16   5 3.17
  19  0.065  0.131  0.669-  95 2.41 154 2.41 181 2.41 107 2.41 103 2.41  98 2.41   9 3.15  18 3.16
                            36 3.16  28 3.16  14 3.17  35 3.17
  20  0.733  0.665  0.500- 214 2.41 217 2.41 186 2.41 144 2.41 176 2.41 222 2.41  64 3.16  59 3.16
                            65 3.16   1 3.16  21 3.16  47 3.16
  21  0.933  0.865  0.500- 194 2.41 176 2.41 149 2.41 179 2.41 189 2.41 214 2.41  47 3.16   1 3.16
                            20 3.16  26 3.16  10 3.17  32 3.17
  22  0.866  0.533  0.330- 209 2.41 216 2.41 173 2.41 152 2.41 160 2.41 219 2.41  23 3.16  58 3.16
                            63 3.16  13 3.16   3 3.17   7 3.17
  23  0.866  0.733  0.330-  85 2.41 224 2.41 173 2.41 147 2.41 208 2.41 152 2.41  22 3.16  58 3.16
                            29 3.16  17 3.16  13 3.17  43 3.17
  24  0.266  0.133  0.330- 196 2.41  94 2.41  97 2.41 202 2.41 199 2.41 195 2.41  51 3.16  34 3.16
                            49 3.16  15 3.16  71 3.17  29 3.17
  25  0.333  0.065  0.500- 117 2.41 120 2.41 192 2.41 203 2.41 114 2.41 123 2.41  48 3.16  26 3.16
                            32 3.17  55 3.17  31 3.17  42 3.17
  26  0.133  0.865  0.500- 184 2.41 194 2.41  88 2.41 189 2.41 120 2.41 123 2.41  25 3.16   6 3.16
                            48 3.16   1 3.16  21 3.16  32 3.17
  27  0.933  0.465  0.500- 183 2.41 104 2.41 212 2.41 158 2.41 171 2.41  92 2.41  53 3.16   6 3.16
                            67 3.16   1 3.16  59 3.16  12 3.17
  28  0.065  0.931  0.669- 148 2.40  95 2.41  98 2.41 188 2.41 112 2.41 191 2.41   9 3.14   5 3.14
                            18 3.16  19 3.16  50 3.17   8 3.17
  29  0.066  0.933  0.330-  85 2.41  97 2.41 187 2.41 190 2.41  94 2.41 147 2.41  15 3.16  49 3.16
                            23 3.16  13 3.17  24 3.17  17 3.17
  30  0.066  0.333  0.330-  99 2.41 102 2.41 213 2.41 105 2.41  91 2.41 151 2.41  37 3.16   7 3.16
                             3 3.16  34 3.16  39 3.16  15 3.16
  31  0.533  0.265  0.500- 117 2.41 177 2.41 136 2.41  89 2.41 114 2.41 167 2.41  55 3.16  59 3.16
                            65 3.16  67 3.17  42 3.17  25 3.17
  32  0.133  0.066  0.500-  96 2.41 192 2.41  93 2.41 189 2.41 203 2.41 194 2.41  10 3.16  26 3.17
                            25 3.17  16 3.17  21 3.17  42 3.17
  33  0.463  0.326  0.668- 233 2.08  76 2.36  81 2.42 200 2.43  77 2.44  84 2.44 225 3.07   9 3.13
                            75 3.13  62 3.16  35 3.16  56 3.24  61 3.24
  34  0.266  0.333  0.330- 102 2.41 139 2.41 202 2.41 199 2.41  79 2.41  91 2.41  60 3.16  24 3.16
                            39 3.16  30 3.16  15 3.16  51 3.17
  35  0.266  0.331  0.670- 200 2.39 140 2.40 107 2.41 103 2.41  80 2.42  77 2.42  33 3.16   9 3.17
                            19 3.17  40 3.17  14 3.17  61 3.18
  36  0.866  0.131  0.670- 154 2.41 153 2.41 178 2.41 181 2.41 211 2.41 165 2.41  18 3.16  11 3.16
                            45 3.16  14 3.16  72 3.16  19 3.16
  37  0.866  0.133  0.330- 164 2.41 180 2.41 213 2.41 221 2.41 146 2.41 151 2.41  30 3.16   7 3.16
                            73 3.16  17 3.16  15 3.17  54 3.17
  38  0.333  0.466  0.500- 198 2.41 201 2.41  82 2.41  86 2.41 138 2.41  78 2.41  64 3.16  41 3.16
[...]
  299          m_sumb_d                              0.002965                          2   4
  300        strehar                               0.016054                            1   3
  301          m_sumb_d                              0.000788                          1   4
  302        chggra                                0.035481                            1   3
  303          fft3d_mpi                             0.025458                          3   4
  304            fftbrc_mpi                            0.024032                        3   5
  305              fftbas_plan_mpi                       0.024024                      3   6
  306                dfftw_execute                         0.006300                    9   7
  307                map_backward                          0.004925                    2   7
  308                  map_gather                            0.000658                  1   8
  309                  m_alltoallv_z                         0.003599                  1   8
  310                  map_scatter                           0.000639                  1   8
  311                map_forward                           0.010823                    4   7
  312                  map_gather                            0.001192                  2   8
  313                  m_alltoallv_z                         0.008282                  2   8
  314                  map_scatter                           0.001309                  2   8
  315          m_sumb_d                              0.000147                          2   4
  316          pothar                                0.002059                          1   4
  317            m_sumb_d                              0.000639                        1   5
  318        brmix                                 0.095078                            1   3
  319          m_sumb_d                              0.007482                          6   4
  320          brpre                                 0.000192                          2   4
  321          setg0                                 0.004758                          1   4
  322          broyd                                 0.044908                          1   4
  323            m_sumb_d                              0.004579                       49   5
  324            brget                                 0.007212                      261   5
  325            brsav                                 0.001887                       47   5
  326          m_bcast_z                             0.030497                          1   4
  327          m_bcast_d                             0.000181                          1   4
  328        m_bcast_d                             0.001708                            2   3
  329      potlok                                6.064325                              1   2
  330        fft3d_mpi                             0.803385                           86   3
  331          fftbrc_mpi                            0.760331                         86   4
  332            fftbas_plan_mpi                       0.760073                       86   5
  333              dfftw_execute                         0.177769                    258   6
  334              map_forward                           0.291092                     88   6
  335                map_gather                            0.023075                   46   7
  336                m_alltoallv_z                         0.235179                   46   7
  337                map_scatter                           0.031698                   46   7
  338              map_backward                          0.236069                     84   6
  339                map_gather                            0.025975                   42   7
  340                m_alltoallv_z                         0.179875                   42   7
  341                map_scatter                           0.029335                   42   7
  342        m_sumb_d                              0.010593                            8   3
  343        fewald                                0.001596                            2   3
  344          rsp                                   0.001490                          2   4
  345          rcp                                   0.000093                          2   4
  346        pothar                                0.002544                            1   3
  347          m_sumb_d                              0.001215                          1   4
  348        m_bcast_d                             0.006087                            2   3
  349      potlok_metagga                        0.000001                              1   2
  350      set_dd_magatom                        0.000001                              1   2
  351      set_dd_paw                            2.897858                              1   2
  352        set_rsgf_all                          0.000002                            1   3
  353        m_sumb_d                              2.897643                            8   3
  354      densta                                0.003895                              1   2
  355        m_sumb_d                              0.002655                           11   3

 Flat profile

 ggemm                                5323.935125      198692
 eddav                                3183.632774         142
 orth1                                1940.999437      456430
 dfftw_execute                        1027.407851     1383474
 m_sumb_d                              762.567260     1087192
 potlok                                730.220144         139
 m_alltoall_d                          702.135384     1113028
 total_time                            509.438221           1
 m_alltoallv_z                         432.221065      461712
 lincom                                289.480585         286
 fftbas_plan_mpi                       259.373038      461158
 map_scatter                           229.414752      461712
 racc0                                 229.016008      152116
 map_gather                            226.692686      461712
 fftwav_mpi                            168.103833      296450
 rpro1                                 162.214992      105540
 crrexp_mul_work_add                   144.854215    35899376
 lapack                                116.328959      152116
 map_forward                           109.202348      605218
 vhamil                                100.200456      152116
 m_bcast_z                              81.893070      167159
 crrexp_mul_wave                        73.610916    25913744
 redis_pw                               37.607331      410344
 w1_copy                                32.266989      456348
 eccp                                   28.220459       46576
 fftext_mpi                             26.311277      152116
 pw_charge                              19.805602       34530
 m_bcast_d                              18.423512      304654
 kinhamil                               12.312248      152116
 apply_precond                           9.255985      105540
 redis_proj                              8.976286      515886
 overl                                   8.814200      257658
 fft3d_mpi                               8.218324      461158
 setup_precond                           8.199446       46576
 augmentation_charge                     7.742398         138
 setdij_                                 7.384879         166
 overl1                                  5.780043      152116
 force_and_stress                        5.269289           1
 broyd                                   3.604120         138
 map_backward                            3.265201      317098
 phaser                                  2.873740         297
 rpromu_gemm                             2.674132      251576
 hamiltmu                                2.470680      152116
 newband                                 1.971859      152400
 rpromu                                  1.941922        1066
 raccmu_                                 1.455367      152116
 fftbas_mpi                              1.434608      448566
 forhar                                  1.243100           2
 brmix                                   1.143610         138
 elmin                                   0.990415           1
 brget                                   0.888242       32187
 soft_charge                             0.766673         138
 setg0                                   0.674442         140
 forloc                                  0.619922           1
 choleski                                0.596307           2
 w1_projall                              0.592985      105540
 depsum                                  0.580224         138
 rspher_all                              0.477945          14
 stufak                                  0.387221           1
 brsav                                   0.318922        7833
 densta                                  0.297848         143
 set_charge                              0.225025         138
 truncate_high_frequency_w1              0.219074      198692
 rsp                                     0.217668         279
 pothar                                  0.188242         140
 inisym                                  0.063873           1
 strnlr                                  0.055949           1
 fft_gq                                  0.055210         138
 fftbrc_mpi                              0.041452       12592
 set_dd_paw                              0.040685         140
 rpro_isp                                0.037950          13
 orthch                                  0.033435           1
 brpre                                   0.033213         276
 strkin                                  0.032534           1
 fornlr                                  0.030011           1
 strehar                                 0.015266           1
 strelo                                  0.015034           1
 rcp                                     0.014992         279
 fewald                                  0.009602         279
 chggra                                  0.007817           1
 brgrid                                  0.001236           1
 set_rsgf_all                            0.000341         140
 vectorpot                               0.000329         139
 fordep                                  0.000307           1
 crpa_reader                             0.000250           1
 potlok_metagga                          0.000219         139
 set_dd_magatom                          0.000203         140
 posmap                                  0.000130           2
 proall                                  0.000066           1
 rotate_active_occupied_orbital          0.000015           1
 redis_pw_over_bands                     0.000001           1
  summed up times    17080.1409990788

 Accumulative profile

 total_time                          17080.140999           1
 elmin                               16444.662165           1
 eddav                               14970.677460         142
 ggemm                                5323.935125      198692
 fft3d_mpi                            2297.271326      461158
 fftbas_plan_mpi                      2287.576941      461158
 fftbas_mpi                           2183.008965      448566
 orth1                                1940.999437      456430
 fftwav_mpi                           1700.922004      296450
 hamiltmu                             1215.880542      152116
 dfftw_execute                        1027.407851     1383474
 potlok                                840.102726         139
 m_sumb_d                              762.567260     1087192
 map_forward                           739.755987      605218
 m_alltoall_d                          702.135384     1113028
 kinhamil                              690.783520      152116
 fftext_mpi                            678.471272      152116
 redis_pw                              590.656653      410344
 m_alltoallv_z                         432.221065      461712
 raccmu_                               422.425886      152116
 racc0                                 415.190476      152116
 set_dd_paw                            404.433787         140
 newband                               349.668631      152400
 lincom                                289.480585         286
 map_backward                          261.040065      317098
 w1_projall                            255.774151      105540
 rpro1                                 255.181166      105540
 map_scatter                           229.414752      461712
 map_gather                            226.692686      461712
 set_charge                            220.865407         138
 soft_charge                           208.506026         138
 redis_proj                            158.062347      515886
 crrexp_mul_work_add                   144.854215    35899376
 lapack                                116.328959      152116
 fftbrc_mpi                            106.044036       12592
 vhamil                                100.200456      152116
 m_bcast_z                              81.893070      167159
 crrexp_mul_wave                        73.610916    25913744
 force_and_stress                       43.224338           1
 eccp                                   35.601389       46576
 w1_copy                                32.266989      456348
 rpro_isp                               29.411449          13
 strnlr                                 21.934398           1
 pw_charge                              19.805602       34530
 m_bcast_d                              18.423512      304654
 augmentation_charge                    11.184231         138
 brmix                                  10.307185         138
 setup_precond                           9.507566       46576
 apply_precond                           9.255985      105540
 overl                                   8.814200      257658
 setdij_                                 8.646077         166
 rpromu                                  7.833512        1066
 fornlr                                  7.324464           1
 overl1                                  5.780043      152116
 broyd                                   5.361579         138
 orthch                                  3.996597           1
 densta                                  3.199865         143
 phaser                                  2.873740         297
 rpromu_gemm                             2.674132      251576
 proall                                  2.348602           1
 forhar                                  1.246065           2
 fft_gq                                  1.217009         138
 depsum                                  0.950125         138
 fewald                                  0.927030         279
 brget                                   0.888242       32187
 setg0                                   0.674442         140
 forloc                                  0.622309           1
 choleski                                0.596307           2
 rspher_all                              0.477945          14
 stufak                                  0.387221           1
 brsav                                   0.318922        7833
 fordep                                  0.311658           1
 pothar                                  0.296233         140
 truncate_high_frequency_w1              0.219074      198692
 rsp                                     0.217668         279
 inisym                                  0.064003           1
 chggra                                  0.035481           1
 strkin                                  0.033609           1
 brpre                                   0.033213         276
 strehar                                 0.016054           1
 strelo                                  0.015491           1
 rcp                                     0.014992         279
 brgrid                                  0.001236           1
 set_rsgf_all                            0.000341         140
 vectorpot                               0.000329         139
 crpa_reader                             0.000250           1
 potlok_metagga                          0.000219         139
 set_dd_magatom                          0.000203         140
 posmap                                  0.000130           2
 rotate_active_occupied_orbital          0.000015           1
 redis_pw_over_bands                     0.000001           1

Profiling took  40.374822 23.272552  0.009038  0.008132 seconds
Profiling took  40.110263 seconds