 vasp.6.3.2 27Jun22 (build Jan 03 2024 23:05:41) complex

 executed on           IFC15_impi date 2024.08.14  13:11:37

 INCAR:
   ENCUT = 600.00
   EDIFF = 1.00e-06
   EDIFFG = -0.05
   ALGO = Normal
   ISMEAR = 0
   SIGMA = 0.05
   LCHARG = .FALSE.
   LWAVE = .FALSE.
   LREAL = Auto
   NELM = 2000
   NSW = 5000
   NCORE = 16
   KPAR = 8
   ISPIN = 2
   GGA = MK
   PARAM1 = 0.1234
   PARAM2 = 1.0
   AGGAC = 0.0
   LUSE_VDW = .TRUE.
   LASPH = .TRUE.
   LDIPOL = .TRUE.
   DIPOL = 0.5 0.5 0.5
   IDIPOL = 3
   IBRION = 44
   POTIM = 0.015

 POTCAR:    PAW_PBE Mo_sv 02Feb2006
 POTCAR:    PAW_PBE S 06Sep2000
 POTCAR:    PAW_PBE C 08Apr2002
 POTCAR:    PAW_PBE H 15Jun2001
 POTCAR:    PAW_PBE N 08Apr2002
|           W    W    AA    RRRRR   N    N  II  N    N   GGGG   !!!           |
|           W    W   A  A   R    R  NN   N  II  NN   N  G    G  !!!           |
|           W    W  A    A  R    R  N N  N  II  N N  N  G       !!!           |
|           W WW W  AAAAAA  RRRRR   N  N N  II  N  N N  G  GGG   !            |
|           WW  WW  A    A  R   R   N   NN  II  N   NN  G    G                |
|           W    W  A    A  R    R  N    N  II  N    N   GGGG   !!!           |
|     You use a magnetic or noncollinear calculation, but did not specify     |
|     the initial magnetic moment with the MAGMOM tag. Note that a            |
|     default of 1 will be used for all atoms. This ferromagnetic setup       |
|     may break the symmetry of the crystal, in particular it may rule        |
|     out finding an antiferromagnetic solution. Thence, we recommend         |
|     setting the initial magnetic moment manually or verifying carefully     |
|     that this magnetic setup is desired.                                    |

   TITEL  = PAW_PBE Mo_sv 02Feb2006
   POMASS =   95.940; ZVAL   =   14.000    mass and valenz
   ENMAX  =  242.676; ENMIN  =  182.007 eV

   TITEL  = PAW_PBE S 06Sep2000
   POMASS =   32.066; ZVAL   =    6.000    mass and valenz
   ENMAX  =  258.689; ENMIN  =  194.016 eV

   TITEL  = PAW_PBE C 08Apr2002
   POMASS =   12.011; ZVAL   =    4.000    mass and valenz
   ENMAX  =  400.000; ENMIN  =  300.000 eV

   TITEL  = PAW_PBE H 15Jun2001
   POMASS =    1.000; ZVAL   =    1.000    mass and valenz
   ENMAX  =  250.000; ENMIN  =  200.000 eV

   TITEL  = PAW_PBE N 08Apr2002
   POMASS =   14.001; ZVAL   =    5.000    mass and valenz
   ENMAX  =  400.000; ENMIN  =  300.000 eV

 Optimization of the real space projectors (new method)

 maximal supplied QI-value         = 15.12
 optimisation between [QCUT,QGAM] = [ 12.55, 25.10] = [ 44.09,176.36] Ry
 Optimized for a Real-space Cutoff    1.47 Angstroem

   l    n(q)    QCUT    max X(q) W(low)/X(q) W(high)/X(q)  e(spline)
   0     11    12.548     3.559    0.18E-04    0.60E-05    0.19E-06
   0     11    12.548    20.730    0.37E-04    0.13E-04    0.98E-07
   1     11    12.548     3.279    0.80E-06    0.70E-06    0.27E-07
   1     11    12.548     4.693    0.72E-04    0.11E-03    0.38E-06
   2     10    12.548    67.616    0.34E-03    0.45E-03    0.54E-06
   2     10    12.548    62.420    0.34E-03    0.45E-03    0.54E-06
 Optimization of the real space projectors (new method)

[...]

   l    n(q)    QCUT    max X(q) W(low)/X(q) W(high)/X(q)  e(spline)
   0      7    12.313    19.460    0.14E-03    0.42E-03    0.16E-06
   0      7    12.313    12.209    0.12E-03    0.40E-03    0.16E-06
   1      7    12.313     4.655    0.33E-03    0.59E-03    0.89E-07
 Optimization of the real space projectors (new method)

 maximal supplied QI-value         = 25.13
 optimisation between [QCUT,QGAM] = [ 12.32, 24.88] = [ 42.47,173.37] Ry
 Optimized for a Real-space Cutoff    1.20 Angstroem

   l    n(q)    QCUT    max X(q) W(low)/X(q) W(high)/X(q)  e(spline)
   0      9    12.315    79.467    0.14E-03    0.22E-04    0.37E-06
   0      9    12.315    66.151    0.14E-03    0.23E-04    0.36E-06
   1      8    12.315    22.077    0.30E-03    0.54E-03    0.45E-06
   1      8    12.315    15.894    0.30E-03    0.55E-03    0.45E-06
|               ----> ADVICE to this user running VASP <----                  |
|     You enforced a specific xc type in the INCAR file but a different       |
|     type was found in the POTCAR file.                                      |
|     I HOPE YOU KNOW WHAT YOU ARE DOING!                                     |

  PAW_PBE Mo_sv 02Feb2006               :
  PAW_PBE S 06Sep2000                   :
  PAW_PBE C 08Apr2002                   :
  PAW_PBE H 15Jun2001                   :
  PAW_PBE N 08Apr2002                   :

 POSCAR: Mo S  H  C  H  N
  positions in direct lattice
  velocities in cartesian coordinates
 exchange correlation table for  LEXCH =       43
   RHO(1)=    0.500       N(1)  =     2000
   RHO(2)=  100.500       N(2)  =     4000

 VTST: version 4.1, (05/19/21)

 CHAIN: initializing optimizer

 OPT: Using VASP Dynamics algorithm
 CHAIN: Read ICHAIN            0

 POSCAR: Mo S  H  C  H  N
  positions in direct lattice
  velocities in cartesian coordinates

 ion  position               nearest neighbor table
   1  0.933  0.665  0.500- 183 2.41  88 2.41 214 2.41 158 2.41 184 2.41 176 2.41  59 3.16   6 3.16
                            20 3.16  21 3.16  27 3.16  26 3.16
   2  0.865  0.531  0.671- 161 2.41 215 2.41 182 2.41 172 2.41 210 2.41 218 2.42   8 3.16  11 3.17
                             4 3.17   5 3.17  56 3.17  62 3.17
   3  0.066  0.533  0.330- 209 2.41 193 2.41  99 2.41 111 2.41 160 2.41 105 2.41  39 3.16   7 3.16
                            30 3.16  52 3.16  13 3.17  22 3.17
   4  0.066  0.531  0.670- 143 2.41 161 2.41 106 2.41 204 2.41 210 2.41  90 2.41  44 3.16   8 3.16
                            14 3.16  11 3.16   2 3.17  40 3.17
   5  0.867  0.732  0.670- 207 2.40 112 2.40 185 2.41 148 2.41 172 2.41 182 2.41  28 3.14   8 3.15
                            18 3.17   2 3.17  46 3.18  56 3.18
   6  0.133  0.665  0.500- 141 2.41  92 2.41 104 2.41  88 2.41 125 2.41 184 2.41  12 3.16   1 3.16
                            27 3.16  26 3.16  48 3.17  41 3.17
   7  0.866  0.333  0.330- 174 2.41 213 2.41 209 2.41 168 2.41 160 2.41 151 2.41   3 3.16  30 3.16
                            37 3.16  63 3.16  22 3.17  73 3.17
   8  0.065  0.731  0.670- 188 2.41 182 2.41 143 2.41 172 2.41 204 2.41 191 2.41   5 3.15  50 3.16
                            44 3.16   4 3.16   2 3.16  28 3.17
   9  0.264  0.130  0.668- 200 2.39  98 2.40  95 2.40 145 2.41 197 2.41  77 2.42  33 3.13  28 3.14
                            19 3.15  50 3.16  35 3.17  75 3.19
  10  0.933  0.065  0.500-  93 2.41 170 2.41 220 2.41  96 2.41 149 2.41 179 2.41  32 3.16  57 3.16
                            21 3.17  53 3.17  47 3.17  16 3.17
  11  0.866  0.331  0.670- 210 2.41 175 2.41 211 2.41 178 2.41 161 2.41 169 2.41  36 3.16  14 3.16
                             4 3.16   2 3.17  72 3.17  62 3.17
  12  0.133  0.466  0.500- 104 2.41 101 2.41 100 2.41 138 2.41  92 2.41  78 2.41   6 3.16  41 3.16
                            16 3.16  38 3.16  27 3.17  53 3.17
  13  0.066  0.733  0.330- 173 2.41 193 2.41 190 2.41 152 2.41 111 2.41 187 2.41  52 3.16  49 3.16
                            22 3.16  23 3.17  29 3.17   3 3.17
  14  0.066  0.331  0.670-  90 2.40 103 2.41 178 2.41 211 2.41 107 2.41 106 2.41  36 3.16   4 3.16
                            11 3.16  40 3.17  19 3.17  35 3.17
  15  0.066  0.133  0.330- 102 2.41 180 2.41  97 2.41  91 2.41  94 2.41 221 2.41  29 3.16  24 3.16
                            34 3.16  17 3.16  30 3.16  37 3.17
  16  0.133  0.266  0.500- 101 2.41  93 2.41 201 2.41 100 2.41  96 2.41 198 2.41  53 3.16  12 3.16
                            42 3.16  32 3.17  38 3.17  10 3.17
  17  0.866  0.933  0.330-  85 2.41 180 2.41 162 2.41 221 2.41 147 2.41 156 2.41  54 3.16  37 3.16
                            23 3.16  43 3.16  15 3.16  29 3.17
  18  0.866  0.932  0.670- 154 2.40 155 2.41 157 2.41 148 2.41 181 2.41 112 2.41  46 3.15  19 3.16
                            36 3.16  28 3.16  45 3.16   5 3.17
  19  0.065  0.131  0.669-  95 2.41 154 2.41 181 2.41 107 2.41 103 2.41  98 2.41   9 3.15  18 3.16
                            36 3.16  28 3.16  14 3.17  35 3.17
  20  0.733  0.665  0.500- 214 2.41 217 2.41 186 2.41 144 2.41 176 2.41 222 2.41  64 3.16  59 3.16
                            65 3.16   1 3.16  21 3.16  47 3.16
  21  0.933  0.865  0.500- 194 2.41 176 2.41 149 2.41 179 2.41 189 2.41 214 2.41  47 3.16   1 3.16
                            20 3.16  26 3.16  10 3.17  32 3.17
  22  0.866  0.533  0.330- 209 2.41 216 2.41 173 2.41 152 2.41 160 2.41 219 2.41  23 3.16  58 3.16
                            63 3.16  13 3.16   3 3.17   7 3.17
  23  0.866  0.733  0.330-  85 2.41 224 2.41 173 2.41 147 2.41 208 2.41 152 2.41  22 3.16  58 3.16
                            29 3.16  17 3.16  13 3.17  43 3.17
  24  0.266  0.133  0.330- 196 2.41  94 2.41  97 2.41 202 2.41 199 2.41 195 2.41  51 3.16  34 3.16
                            49 3.16  15 3.16  71 3.17  29 3.17
  25  0.333  0.065  0.500- 117 2.41 120 2.41 192 2.41 203 2.41 114 2.41 123 2.41  48 3.16  26 3.16
                            32 3.17  55 3.17  31 3.17  42 3.17
  26  0.133  0.865  0.500- 184 2.41 194 2.41  88 2.41 189 2.41 120 2.41 123 2.41  25 3.16   6 3.16
                            48 3.16   1 3.16  21 3.16  32 3.17
  27  0.933  0.465  0.500- 183 2.41 104 2.41 212 2.41 158 2.41 171 2.41  92 2.41  53 3.16   6 3.16
                            67 3.16   1 3.16  59 3.16  12 3.17
  28  0.065  0.931  0.669- 148 2.40  95 2.41  98 2.41 188 2.41 112 2.41 191 2.41   9 3.14   5 3.14
                            18 3.16  19 3.16  50 3.17   8 3.17
  29  0.066  0.933  0.330-  85 2.41  97 2.41 187 2.41 190 2.41  94 2.41 147 2.41  15 3.16  49 3.16
                            23 3.16  13 3.17  24 3.17  17 3.17
  30  0.066  0.333  0.330-  99 2.41 102 2.41 213 2.41 105 2.41  91 2.41 151 2.41  37 3.16   7 3.16
                             3 3.16  34 3.16  39 3.16  15 3.16
  31  0.533  0.265  0.500- 117 2.41 177 2.41 136 2.41  89 2.41 114 2.41 167 2.41  55 3.16  59 3.16
                            65 3.16  67 3.17  42 3.17  25 3.17
  32  0.133  0.066  0.500-  96 2.41 192 2.41  93 2.41 189 2.41 203 2.41 194 2.41  10 3.16  26 3.17
                            25 3.17  16 3.17  21 3.17  42 3.17
  33  0.463  0.326  0.668- 233 2.19  76 2.36  81 2.42 200 2.43  77 2.44  84 2.44 225 3.07   9 3.13
                            75 3.13  62 3.16  35 3.16  56 3.24  61 3.24
  34  0.266  0.333  0.330- 102 2.41 139 2.41 202 2.41 199 2.41  79 2.41  91 2.41  60 3.16  24 3.16
                            39 3.16  30 3.16  15 3.16  51 3.17
  35  0.266  0.331  0.670- 200 2.39 140 2.40 107 2.41 103 2.41  80 2.42  77 2.42  33 3.16   9 3.17
                            19 3.17  40 3.17  14 3.17  61 3.18
  36  0.866  0.131  0.670- 154 2.41 153 2.41 178 2.41 181 2.41 211 2.41 165 2.41  18 3.16  11 3.16
                            45 3.16  14 3.16  72 3.16  19 3.16
  37  0.866  0.133  0.330- 164 2.41 180 2.41 213 2.41 221 2.41 146 2.41 151 2.41  30 3.16   7 3.16
                            73 3.16  17 3.16  15 3.17  54 3.17
  38  0.333  0.466  0.500- 198 2.41 201 2.41  82 2.41  86 2.41 138 2.41  78 2.41  64 3.16  41 3.16
[...]
  299          m_sumb_d                              0.000291                          2   4
  300        strehar                               0.015145                            1   3
  301          m_sumb_d                              0.000315                          1   4
  302        chggra                                0.033845                            1   3
  303          fft3d_mpi                             0.024381                          3   4
  304            fftbrc_mpi                            0.022933                        3   5
  305              fftbas_plan_mpi                       0.022924                      3   6
  306                dfftw_execute                         0.006235                    9   7
  307                map_backward                          0.004832                    2   7
  308                  map_gather                            0.000643                  1   8
  309                  m_alltoallv_z                         0.003540                  1   8
  310                  map_scatter                           0.000623                  1   8
  311                map_forward                           0.010039                    4   7
  312                  map_gather                            0.001072                  2   8
  313                  m_alltoallv_z                         0.007538                  2   8
  314                  map_scatter                           0.001388                  2   8
  315          m_sumb_d                              0.000109                          2   4
  316          pothar                                0.001810                          1   4
  317            m_sumb_d                              0.000442                        1   5
  318        brmix                                 0.073085                            1   3
  319          m_sumb_d                              0.001003                          6   4
  320          brpre                                 0.000185                          2   4
  321          setg0                                 0.004750                          1   4
  322          broyd                                 0.047828                          1   4
  323            brget                                 0.009298                      366   5
  324            brsav                                 0.005640                      163   5
  325            m_sumb_d                              0.003506                       47   5
  326          m_bcast_z                             0.012670                          1   4
  327          m_bcast_d                             0.000145                          1   4
  328        m_bcast_d                             0.001492                            2   3
  329      potlok                                5.803664                              1   2
  330        fft3d_mpi                             0.778146                           86   3
  331          fftbrc_mpi                            0.736190                         86   4
  332            fftbas_plan_mpi                       0.735940                       86   5
  333              dfftw_execute                         0.169858                    258   6
  334              map_forward                           0.298397                     88   6
  335                map_gather                            0.021796                   46   7
  336                m_alltoallv_z                         0.243828                   46   7
  337                map_scatter                           0.031939                   46   7
  338              map_backward                          0.214704                     84   6
  339                map_gather                            0.025158                   42   7
  340                m_alltoallv_z                         0.159136                   42   7
  341                map_scatter                           0.029562                   42   7
  342        m_sumb_d                              0.001211                            8   3
  343        fewald                                0.001575                            2   3
  344          rsp                                   0.001467                          2   4
  345          rcp                                   0.000093                          2   4
  346        pothar                                0.002397                            1   3
  347          m_sumb_d                              0.001082                          1   4
  348        m_bcast_d                             0.005806                            2   3
  349      potlok_metagga                        0.000001                              1   2
  350      set_dd_magatom                        0.000001                              1   2
  351      set_dd_paw                            2.805101                              1   2
  352        set_rsgf_all                          0.000001                            1   3
  353        m_sumb_d                              2.804764                            8   3
  354      densta                                0.003168                              1   2
  355        m_sumb_d                              0.002062                           10   3

 Flat profile

 ggemm                                8043.142204      306247
 eddav                                4968.262720         215
 orth1                                2905.127920      707263
 dfftw_execute                        1532.913205     2139000
 potlok                               1072.350731         212
 m_sumb_d                             1062.742278     1683327
 m_alltoall_d                          884.527476     1722249
 m_alltoallv_z                         574.007420      713846
 total_time                            493.104726           1
 lincom                                417.553375         432
 fftbas_plan_mpi                       388.612091      713000
 map_scatter                           338.965184      713846
 racc0                                 338.130577      235727
 map_gather                            332.901419      713846
 fftwav_mpi                            245.719399      458111
 rpro1                                 245.221501      165207
 crrexp_mul_work_add                   216.631924    56103026
 lapack                                175.444752      235727
 map_forward                           164.068406      934964
 vhamil                                148.806606      235727
 crrexp_mul_wave                       111.756249    40334098
 m_bcast_z                              84.311736      250916
 redis_pw                               55.306911      637525
 w1_copy                                48.241424      707181
 eccp                                   41.041474       70520
 fftext_mpi                             40.149900      235727
 pw_charge                              29.661720       52913
 m_bcast_d                              25.586921      472095
 kinhamil                               19.386744      235727
 apply_precond                          14.549412      165207
 overl                                  13.718804      400936
 redis_proj                             13.342615      802734
 setup_precond                          12.501303       70520
 fft3d_mpi                              12.182730      713000
 augmentation_charge                    11.404029         211
 setdij_                                10.446615         239
 overl1                                  8.868368      235727
 broyd                                   5.941734         211
 force_and_stress                        5.072987           1
 map_backward                            4.730903      491036
 phaser                                  4.230933         443
 hamiltmu                                3.729950      235727
 elmin                                   3.386404           1
 newband                                 2.911630      236157
 rpromu_gemm                             2.605584      253708
 raccmu_                                 2.341627      235727
 fftbas_mpi                              2.114843      693838
 rpromu                                  1.875459        1066
 brmix                                   1.677939         211
 brget                                   1.360472       53001
 forhar                                  1.224057           2
 soft_charge                             1.072731         211
 setg0                                   1.013057         213
 w1_projall                              0.881844      165207
 depsum                                  0.864934         211
 densta                                  0.654611         216
 forloc                                  0.612654           1
 choleski                                0.562090           2
 brsav                                   0.482305       13035
 rspher_all                              0.467608          14
 set_charge                              0.421776         211
 stufak                                  0.385546           1
 truncate_high_frequency_w1              0.332201      306247
 rsp                                     0.324646         425
 pothar                                  0.276903         213
 fft_gq                                  0.083067         211
 inisym                                  0.064034           1
 set_dd_paw                              0.062378         213
 fftbrc_mpi                              0.059665       19162
 strnlr                                  0.055268           1
 brpre                                   0.049460         422
 rpro_isp                                0.038503          13
 orthch                                  0.034667           1
 strkin                                  0.030624           1
 rcp                                     0.021469         425
 fornlr                                  0.019471           1
 strehar                                 0.014830           1
 strelo                                  0.014251           1
 fewald                                  0.010667         425
 chggra                                  0.007545           1
 brgrid                                  0.001264           1
 potlok_metagga                          0.000515         212
 set_rsgf_all                            0.000474         213
 vectorpot                               0.000362         212
 set_dd_magatom                          0.000346         213
 fordep                                  0.000306           1
 crpa_reader                             0.000248           1
 posmap                                  0.000114           2
 proall                                  0.000080           1
 rotate_active_occupied_orbital          0.000013           1
 redis_pw_over_bands                     0.000002           1
  summed up times    25152.8179221153

 Accumulative profile

 total_time                          25152.817922           1
 elmin                               24540.975496           1
 eddav                               22358.036566         215
 ggemm                                8043.142204      306247
 fft3d_mpi                            3350.555865      713000
 fftbas_plan_mpi                      3336.198627      713000
 fftbas_mpi                           3181.838156      693838
 orth1                                2905.127920      707263
 fftwav_mpi                           2460.940703      458111
 hamiltmu                             1812.636529      235727
 dfftw_execute                        1532.913205     2139000
 potlok                               1235.711515         212
 m_sumb_d                             1062.742278     1683327
 map_forward                          1031.334641      934964
 kinhamil                             1029.113723      235727
 fftext_mpi                           1009.726979      235727
 m_alltoall_d                          884.527476     1722249
 redis_pw                              762.432737      637525
 raccmu_                               630.986251      235727
 racc0                                 619.776256      235727
 set_dd_paw                            607.393340         213
 m_alltoallv_z                         574.007420      713846
 newband                               485.709384      236157
 lincom                                417.553375         432
 map_backward                          383.338690      491036
 w1_projall                            381.751837      165207
 rpro1                                 380.869993      165207
 map_scatter                           338.965184      713846
 map_gather                            332.901419      713846
 set_charge                            320.328270         211
 soft_charge                           302.286291         211
 crrexp_mul_work_add                   216.631924    56103026
 redis_proj                            190.744264      802734
 lapack                                175.444752      235727
 fftbrc_mpi                            156.534979       19162
 vhamil                                148.806606      235727
 crrexp_mul_wave                       111.756249    40334098
 m_bcast_z                              84.311736      250916
 w1_copy                                48.241424      707181
 eccp                                   45.543616       70520
 force_and_stress                       40.852053           1
 pw_charge                              29.661720       52913
 rpro_isp                               28.297069          13
 m_bcast_d                              25.586921      472095
 strnlr                                 20.499571           1
 augmentation_charge                    16.198415         211
 apply_precond                          14.549412      165207
 setup_precond                          14.417512       70520
 brmix                                  14.398996         211
 overl                                  13.718804      400936
 setdij_                                12.056590         239
 overl1                                  8.868368      235727
 broyd                                   8.485567         211
 rpromu                                  7.502837        1066
 fornlr                                  6.858520           1
 phaser                                  4.230933         443
 orthch                                  3.669768           1
 densta                                  3.563467         216
 rpromu_gemm                             2.605584      253708
 proall                                  2.225451           1
 fft_gq                                  1.765223         211
 depsum                                  1.421789         211
 brget                                   1.360472       53001
 forhar                                  1.224348           2
 setg0                                   1.013057         213
 forloc                                  0.612797           1
 choleski                                0.562090           2
 fewald                                  0.487211         425
 brsav                                   0.482305       13035
 rspher_all                              0.467608          14
 pothar                                  0.413829         213
 stufak                                  0.385546           1
 truncate_high_frequency_w1              0.332201      306247
 rsp                                     0.324646         425
 fordep                                  0.302169           1
 inisym                                  0.064148           1
 brpre                                   0.049460         422
 chggra                                  0.033845           1
 strkin                                  0.032090           1
 rcp                                     0.021469         425
 strehar                                 0.015145           1
 strelo                                  0.014786           1
 brgrid                                  0.001264           1
 potlok_metagga                          0.000515         212
 set_rsgf_all                            0.000474         213
 vectorpot                               0.000362         212
 set_dd_magatom                          0.000346         213
 crpa_reader                             0.000248           1
 posmap                                  0.000114           2
 rotate_active_occupied_orbital          0.000013           1
 redis_pw_over_bands                     0.000002           1

Profiling took  59.120121 34.785685  0.009530  0.008839 seconds
Profiling took  59.155278 seconds