 vasp.6.3.2 27Jun22 (build Jan 03 2024 23:05:41) complex

 executed on           IFC15_impi date 2024.07.31  10:37:07

 INCAR:
   ENCUT = 600.00
   EDIFF = 1.00e-06
   ALGO = Normal
   ISMEAR = -5
   LORBIT = 11
   ICHARG = 11
   EMIN = -8.
   EMAX = 5.
   NEDOS = 3000
   LCHARG = .TRUE.
   LWAVE = .FALSE.
   LREAL = Auto
   NELM = 2000
   NCORE = 16
   KPAR = 8
   ISPIN = 2
   GGA = MK
   PARAM1 = 0.1234
   PARAM2 = 1.0
   AGGAC = 0.0
   LUSE_VDW = .TRUE.
   LASPH = .TRUE.
   LDIPOL = .TRUE.
   DIPOL = 0.5 0.5 0.5
   IDIPOL = 3

 POTCAR:    PAW_PBE Mo_sv 02Feb2006
 POTCAR:    PAW_PBE S 06Sep2000
|           W    W    AA    RRRRR   N    N  II  N    N   GGGG   !!!           |
|           W    W   A  A   R    R  NN   N  II  NN   N  G    G  !!!           |
|           W    W  A    A  R    R  N N  N  II  N N  N  G       !!!           |
|           W WW W  AAAAAA  RRRRR   N  N N  II  N  N N  G  GGG   !            |
|           WW  WW  A    A  R   R   N   NN  II  N   NN  G    G                |
|           W    W  A    A  R    R  N    N  II  N    N   GGGG   !!!           |
|     You use a magnetic or noncollinear calculation, but did not specify     |
|     the initial magnetic moment with the MAGMOM tag. Note that a            |
|     default of 1 will be used for all atoms. This ferromagnetic setup       |
|     may break the symmetry of the crystal, in particular it may rule        |
|     out finding an antiferromagnetic solution. Thence, we recommend         |
|     setting the initial magnetic moment manually or verifying carefully     |
|     that this magnetic setup is desired.                                    |

   TITEL  = PAW_PBE Mo_sv 02Feb2006
   POMASS =   95.940; ZVAL   =   14.000    mass and valenz
   ENMAX  =  242.676; ENMIN  =  182.007 eV

   TITEL  = PAW_PBE S 06Sep2000
   POMASS =   32.066; ZVAL   =    6.000    mass and valenz
   ENMAX  =  258.689; ENMIN  =  194.016 eV

 Optimization of the real space projectors (new method)

 maximal supplied QI-value         = 15.12
 optimisation between [QCUT,QGAM] = [ 12.55, 25.10] = [ 44.09,176.36] Ry
 Optimized for a Real-space Cutoff    1.47 Angstroem

   l    n(q)    QCUT    max X(q) W(low)/X(q) W(high)/X(q)  e(spline)
   0     11    12.548     3.559    0.18E-04    0.60E-05    0.19E-06
   0     11    12.548    20.730    0.37E-04    0.13E-04    0.98E-07
   1     11    12.548     3.279    0.80E-06    0.70E-06    0.27E-07
   1     11    12.548     4.693    0.72E-04    0.11E-03    0.38E-06
   2     10    12.548    67.616    0.34E-03    0.45E-03    0.54E-06
   2     10    12.548    62.420    0.34E-03    0.45E-03    0.54E-06
 Optimization of the real space projectors (new method)

 maximal supplied QI-value         = 19.84
 optimisation between [QCUT,QGAM] = [ 12.50, 25.00] = [ 43.76,175.03] Ry
 Optimized for a Real-space Cutoff    1.06 Angstroem

   l    n(q)    QCUT    max X(q) W(low)/X(q) W(high)/X(q)  e(spline)
   0      8    12.501   187.594    0.26E-03    0.17E-03    0.97E-07
   0      8    12.501   164.243    0.26E-03    0.17E-03    0.96E-07
   1      7    12.501    67.533    0.50E-03    0.61E-03    0.91E-07
   1      7    12.501    50.729    0.48E-03    0.60E-03    0.90E-07
|               ----> ADVICE to this user running VASP <----                  |
|     You enforced a specific xc type in the INCAR file but a different       |
|     type was found in the POTCAR file.                                      |
|     I HOPE YOU KNOW WHAT YOU ARE DOING!                                     |

  PAW_PBE Mo_sv 02Feb2006               :
  PAW_PBE S 06Sep2000                   :

 POSCAR: Mo S
  positions in direct lattice
  velocities in cartesian coordinates
 exchange correlation table for  LEXCH =       43
   RHO(1)=    0.500       N(1)  =     2000
   RHO(2)=  100.500       N(2)  =     4000

 VTST: version 4.1, (05/19/21)

 CHAIN: initializing optimizer

 OPT: Using VASP Dynamics algorithm
 CHAIN: Read ICHAIN            0

 POSCAR: Mo S
  positions in direct lattice
  velocities in cartesian coordinates

 ion  position               nearest neighbor table
   1  0.665  0.731  0.499-  64 2.39  40 2.39  37 2.41  65 2.41  39 2.41  36 2.42  13 3.13  14 3.13
                            11 3.16  19 3.16   3 3.19  23 3.19
   2  0.267  0.934  0.501-  49 2.41  71 2.41  48 2.41  47 2.41  70 2.41  51 2.41  25 3.17  10 3.17
                             4 3.17  18 3.17  17 3.17   8 3.17
   3  0.666  0.933  0.500-  45 2.40  66 2.41  36 2.41  37 2.41  33 2.41  32 2.41  10 3.16  23 3.17
                            11 3.17   6 3.17   9 3.18   1 3.19
   4  0.267  0.733  0.501-  69 2.41  46 2.41  71 2.41  52 2.41  70 2.41  68 2.41  10 3.17  20 3.17
                            18 3.17   2 3.17  11 3.17   5 3.17
   5  0.268  0.533  0.500-  69 2.40  68 2.41  58 2.41  57 2.41  67 2.42  60 2.43  11 3.15   7 3.16
                            22 3.17   4 3.17  20 3.18  13 3.20
   6  0.867  0.133  0.500-  35 2.41  33 2.41  29 2.41  30 2.41  32 2.41  42 2.41   9 3.17  24 3.17
                            23 3.17  16 3.17  22 3.17   3 3.17
   7  0.269  0.335  0.499-  60 2.39  50 2.39  56 2.41  67 2.41  59 2.41  55 2.42  13 3.13  15 3.13
                             5 3.16  17 3.16  22 3.19  24 3.19
   8  0.467  0.134  0.500-  49 2.40  51 2.41  73 2.41  72 2.41  62 2.42  61 2.43  17 3.15  12 3.16
                             9 3.17   2 3.17  10 3.18  15 3.20
   9  0.666  0.134  0.500-  73 2.40  72 2.41  26 2.41  28 2.41  33 2.41  32 2.41  10 3.16  16 3.17
                             8 3.17   6 3.17   3 3.18  12 3.19
  10  0.467  0.933  0.501-  71 2.41  70 2.41  45 2.41  73 2.41  66 2.41  72 2.41   3 3.16   9 3.16
                             4 3.17   2 3.17  11 3.18   8 3.18
  11  0.467  0.732  0.500-  69 2.40  68 2.41  45 2.41  66 2.41  65 2.42  64 2.43   5 3.15   1 3.16
                             3 3.17   4 3.17  10 3.18  13 3.20
  12  0.665  0.335  0.499-  61 2.39  44 2.39  28 2.41  43 2.41  62 2.41  26 2.42  15 3.13  14 3.13
                             8 3.16  21 3.16  16 3.19   9 3.19
  13  0.469  0.531  0.497-  63 2.38  67 2.39  65 2.39  60 2.40  64 2.40  14 3.06  15 3.06   7 3.13
                             1 3.13   5 3.20  11 3.20
  14  0.662  0.531  0.497-  63 2.38  39 2.39  43 2.39  40 2.40  44 2.40  13 3.06  15 3.06  12 3.13
                             1 3.13  21 3.20  19 3.20
  15  0.469  0.338  0.497-  63 2.38  59 2.39  62 2.39  50 2.40  61 2.40  13 3.06  14 3.06  12 3.13
                             7 3.13   8 3.20  17 3.20
  16  0.866  0.334  0.500-  41 2.40  38 2.41  26 2.41  28 2.41  29 2.41  42 2.41  20 3.16   9 3.17
                            21 3.17   6 3.17  22 3.18  12 3.19
  17  0.268  0.134  0.500-  49 2.40  51 2.41  54 2.41  53 2.41  59 2.42  50 2.43   8 3.15   7 3.16
                            24 3.17   2 3.17  25 3.18  15 3.20
  18  0.066  0.733  0.501-  27 2.41  46 2.41  48 2.41  47 2.41  52 2.41  31 2.41  25 3.17  20 3.17
                             4 3.17   2 3.17  19 3.17  21 3.17
  19  0.866  0.732  0.500-  27 2.40  31 2.41  74 2.41  34 2.41  39 2.42  40 2.43  21 3.15   1 3.16
                            23 3.17  18 3.17  25 3.18  14 3.20
  20  0.067  0.533  0.501-  46 2.41  52 2.41  58 2.41  41 2.41  57 2.41  38 2.41  22 3.16  16 3.16
                             4 3.17  18 3.17   5 3.18  21 3.18
  21  0.866  0.533  0.500-  27 2.40  31 2.41  41 2.41  38 2.41  43 2.42  44 2.43  19 3.15  12 3.16
                            16 3.17  18 3.17  20 3.18  14 3.20
  22  0.067  0.334  0.500-  58 2.40  57 2.41  55 2.41  56 2.41  29 2.41  42 2.41  20 3.16  24 3.17
                             5 3.17   6 3.17  16 3.18   7 3.19
  23  0.866  0.933  0.500-  74 2.40  34 2.41  36 2.41  37 2.41  35 2.41  30 2.41  25 3.16   3 3.17
                            19 3.17   6 3.17  24 3.18   1 3.19
  24  0.067  0.134  0.500-  54 2.40  53 2.41  55 2.41  56 2.41  35 2.41  30 2.41  25 3.16  22 3.17
                            17 3.17   6 3.17  23 3.18   7 3.19
  25  0.067  0.933  0.501-  48 2.41  47 2.41  54 2.41  74 2.41  34 2.41  53 2.41  23 3.16  24 3.16
                             2 3.17  18 3.17  17 3.18  19 3.18
  26  0.732  0.268  0.567-  16 2.41   9 2.41  12 2.42
  27  0.934  0.667  0.433-  21 2.40  19 2.40  18 2.41
  28  0.733  0.267  0.432-  16 2.41   9 2.41  12 2.41
  29  0.933  0.267  0.568-   6 2.41  16 2.41  22 2.41
  30  0.934  0.066  0.433-   6 2.41  23 2.41  24 2.41
  31  0.932  0.666  0.569-  21 2.41  19 2.41  18 2.41
  32  0.733  0.066  0.433-   6 2.41   9 2.41   3 2.41
  33  0.733  0.067  0.568-   6 2.41   9 2.41   3 2.41
  34  0.932  0.866  0.568-  23 2.41  19 2.41  25 2.41
  35  0.933  0.067  0.568-   6 2.41  24 2.41  23 2.41
  36  0.732  0.864  0.567-   3 2.41  23 2.41   1 2.42
  37  0.733  0.867  0.432-   3 2.41  23 2.41   1 2.41
  38  0.932  0.466  0.568-  16 2.41  21 2.41  20 2.41
  39  0.734  0.665  0.431-  14 2.39   1 2.41  19 2.42
  40  0.727  0.661  0.566-   1 2.39  14 2.40  19 2.43
  41  0.934  0.467  0.433-  16 2.40  20 2.41  21 2.41
  42  0.934  0.267  0.433-   6 2.41  16 2.41  22 2.41
  43  0.734  0.468  0.431-  14 2.39  12 2.41  21 2.42
  44  0.727  0.466  0.566-  12 2.39  14 2.40  21 2.43
  45  0.533  0.866  0.433-   3 2.40  10 2.41  11 2.41
  46  0.133  0.667  0.434-  20 2.41  18 2.41   4 2.41
  47  0.133  0.867  0.569-  25 2.41   2 2.41  18 2.41
  48  0.133  0.867  0.434-  25 2.41   2 2.41  18 2.41
  49  0.333  0.066  0.433-   8 2.40  17 2.40   2 2.41
  50  0.339  0.273  0.566-   7 2.39  15 2.40  17 2.43
  51  0.334  0.068  0.569-   8 2.41  17 2.41   2 2.41
  52  0.133  0.666  0.569-  20 2.41   4 2.41  18 2.41
  53  0.134  0.068  0.568-  24 2.41  17 2.41  25 2.41
  54  0.134  0.066  0.433-  24 2.40  25 2.41  17 2.41
  55  0.136  0.268  0.567-  22 2.41  24 2.41   7 2.42
  56  0.133  0.267  0.432-  22 2.41  24 2.41   7 2.41
  57  0.134  0.466  0.568-  22 2.41   5 2.41  20 2.41
  58  0.134  0.467  0.433-  22 2.40  20 2.41   5 2.41
  59  0.335  0.266  0.431-  15 2.39   7 2.41  17 2.42
  60  0.339  0.466  0.566-   7 2.39  13 2.40   5 2.43
  61  0.534  0.273  0.566-  12 2.39  15 2.40   8 2.43
  62  0.532  0.266  0.431-  15 2.39  12 2.41   8 2.42
  63  0.533  0.467  0.428-  13 2.38  14 2.38  15 2.38
  64  0.534  0.661  0.566-   1 2.39  13 2.40  11 2.43
  65  0.532  0.665  0.431-  13 2.39   1 2.41  11 2.42
  66  0.534  0.866  0.568-   3 2.41  11 2.41  10 2.41
  67  0.335  0.468  0.431-  13 2.39   7 2.41   5 2.42
  68  0.334  0.666  0.569-  11 2.41   5 2.41   4 2.41
  69  0.333  0.667  0.433-  11 2.40   5 2.40   4 2.41
  70  0.334  0.867  0.569-  10 2.41   4 2.41   2 2.41
  71  0.333  0.867  0.434-  10 2.41   2 2.41   4 2.41
  72  0.534  0.068  0.568-   9 2.41   8 2.41  10 2.41
  73  0.533  0.066  0.433-   9 2.40  10 2.41   8 2.41
  74  0.934  0.866  0.433-  23 2.40  25 2.41  19 2.41

  LATTYP: Found a hexagonal cell.
 ALAT       =    15.8227970706
 C/A-ratio  =     1.4623157837

  Lattice vectors:

 A1 = (   7.9113985353, -13.7029442220,   0.0000000000)
 A2 = (   7.9113985353,  13.7029442220,   0.0000000000)
 A3 = (   0.0000000000,   0.0000000000,  23.1379258980)

Analysis of symmetry for initial positions (statically):
 Subroutine PRICEL returns:
 Original cell was already a primitive cell.

[...]
  245              crrexp_mul_wave                       0.716501                 282384   6
  246              rpromu_gemm                           0.774903                  71928   6
  247              m_sumb_d                              0.314663                   3816   6
  248          m_sumb_d                              0.005672                         10   4
  249        m_sumb_d                              0.009656                            7   3
  250        fft3d_mpi                             0.854988                           82   3
  251          fftbrc_mpi                            0.809423                         82   4
  252            fftbas_plan_mpi                       0.809119                       82   5
  253              dfftw_execute                         0.212048                    246   6
  254              map_forward                           0.231426                     80   6
  255                map_gather                            0.062965                   40   7
  256                m_alltoallv_z                         0.142401                   40   7
  257                map_scatter                           0.025301                   40   7
  258              map_backward                          0.314934                     84   6
  259                map_gather                            0.031540                   42   7
  260                m_alltoallv_z                         0.166149                   42   7
  261                map_scatter                           0.116366                   42   7
  262        forhar                                0.482602                            2   3
  263          m_sumb_d                              0.007247                          2   4
  264        strehar                               0.013151                            1   3
  265          m_sumb_d                              0.000360                          1   4
  266        chggra                                0.045932                            1   3
  267          fft3d_mpi                             0.030259                          3   4
  268            fftbrc_mpi                            0.028573                        3   5
  269              fftbas_plan_mpi                       0.028563                      3   6
  270                dfftw_execute                         0.007628                    9   7
  271                map_backward                          0.006444                    2   7
  272                  map_gather                            0.000885                  1   8
  273                  m_alltoallv_z                         0.003216                  1   8
  274                  map_scatter                           0.002312                  1   8
  275                map_forward                           0.012612                    4   7
  276                  map_gather                            0.003716                  2   8
  277                  m_alltoallv_z                         0.007344                  2   8
  278                  map_scatter                           0.001504                  2   8
  279          m_sumb_d                              0.000113                          2   4
  280          pothar                                0.005332                          1   4
  281            m_sumb_d                              0.003596                        1   5
  282        m_bcast_d                             0.423420                            2   3
  283      potlok                                6.479808                              1   2
  284        fft3d_mpi                             0.900947                           86   3
  285          fftbrc_mpi                            0.854525                         86   4
  286            fftbas_plan_mpi                       0.854290                       86   5
  287              dfftw_execute                         0.213468                    258   6
  288              map_forward                           0.261755                     88   6
  289                map_gather                            0.069282                   46   7
  290                m_alltoallv_z                         0.161717                   46   7
  291                map_scatter                           0.029896                   46   7
  292              map_backward                          0.326353                     84   6
  293                map_gather                            0.031590                   42   7
  294                m_alltoallv_z                         0.173906                   42   7
  295                map_scatter                           0.119984                   42   7
  296        m_sumb_d                              0.009604                            8   3
  297        fewald                                0.001548                            2   3
  298          rsp                                   0.001301                          2   4
  299          rcp                                   0.000221                          2   4
  300        pothar                                0.002401                            1   3
  301          m_sumb_d                              0.000714                          1   4
  302        m_bcast_d                             0.003609                            2   3
  303      potlok_metagga                        0.000027                              1   2
  304      set_dd_magatom                        0.000000                              1   2
  305      set_dd_paw                            2.854149                              1   2
  306        set_rsgf_all                          0.000002                            1   3
  307        m_sumb_d                              2.853677                            8   3
  308      densta                             1409.610230                              1   2
  309        m_bcast_z                             0.000945                            1   3

 Flat profile

 densta                               1422.793145          11
 total_time                            705.465327           1
 ggemm                                 151.934299        9379
 dfftw_execute                          65.551941      136254
 m_bcast_z                              45.818912       20004
 orth1                                  43.181525       21833
 m_sumb_d                               33.964269       92148
 eddav                                  27.361464          10
 m_alltoallv_z                          26.510950       45424
 fftbas_plan_mpi                        23.339942       45418
 sphpro_fast                            21.764693           2
 m_alltoall_d                           21.706533      107986
 fftwav_mpi                             18.022863       30632
 map_scatter                            14.607118       45424
 map_gather                             13.451833       45424
 vhamil                                 12.466288       14518
 potlok                                 12.328492           2
 map_forward                            10.940398       61534
 lincom                                  5.966847          44
 lapack                                  5.680848        7259
 force_and_stress                        5.634121           1
 crrexp_mul_work_add                     3.957335     1074332
 gemm                                    3.846841      537166
 rpromu_gemm                             3.686992      484182
 crrexp_mul_wave                         3.012757     1168460
 rpromu                                  2.585780        6543
 w1_copy                                 2.549194       43554
 racc0mu                                 2.514008        7259
 eccp                                    2.269538        4240
 redis_pw                                2.155535       39402
 fftext_mpi                              1.694070       14518
 m_bcast_d                               1.424646       15089
 set_charge                              1.078926           1
 kinhamil                                1.049333       14518
 apply_precond                           0.931475       10278
 redis_proj                              0.611789       49684
 setdij_                                 0.536982          29
 overl                                   0.525793       24800
 setup_precond                           0.480298        4240
 forhar                                  0.475355           2
 fft3d_mpi                               0.326308       45418
 stufak                                  0.301776           2
 map_backward                            0.279197       29302
 forloc                                  0.235667           1
 overl1                                  0.234679       14518
 elmin                                   0.224958           1
 phaser                                  0.215053          66
 hamiltmu                                0.202406        7259
 pw_charge                               0.184567         324
 newband                                 0.162776        7299
 rspher_all                              0.157971          14
 fftbas_mpi                              0.138593       45150
 choleski                                0.100332           4
 raccmu_                                 0.081996        7259
 inisym                                  0.080842           1
 rpro_isp                                0.040405          26
 augmentation_charge                     0.037145           1
 w1_projall                              0.034844        5139
 strnlr                                  0.030218           1
 strkin                                  0.026101           1
 strelo                                  0.019939           1
 truncate_high_frequency_w1              0.018372       18758
 strehar                                 0.012791           1
 soft_charge                             0.011007           1
 chggra                                  0.010227           1
 fornlr                                  0.010041           1
 fewald                                  0.005592           5
 orthch                                  0.005301           1
 pothar                                  0.005205           3
 rsp                                     0.004490           5
 depsum                                  0.002301           1
 set_dd_paw                              0.001866           3
 fftbrc_mpi                              0.000844         268
 rcp                                     0.000667           5
 fft_gq                                  0.000385           1
 posmap                                  0.000310           2
 crpa_reader                             0.000243           1
 fordep                                  0.000206           1
 proall                                  0.000074           1
 potlok_metagga                          0.000044           2
 vectorpot                               0.000028           2
 set_rsgf_all                            0.000022           3
 rotate_active_occupied_orbital          0.000017           1
 set_dd_magatom                          0.000011           3
 redis_pw_over_bands                     0.000001           1
  summed up times    2727.08427500725

 Accumulative profile

 total_time                           2727.084275           1
 densta                               1422.798021          11
 elmin                                 478.762863           1
 eddav                                 453.646448          10
 fft3d_mpi                             155.147125       45418
 fftbas_plan_mpi                       154.681380       45418
 fftbas_mpi                            152.166822       45150
 ggemm                                 151.934299        9379
 fftwav_mpi                            124.116744       30632
 hamiltmu                               73.936746        7259
 dfftw_execute                          65.551941      136254
 kinhamil                               48.998018       14518
 fftext_mpi                             47.948685       14518
 map_forward                            46.991168       61534
 m_bcast_z                              45.818912       20004
 orth1                                  43.181525       21833
 force_and_stress                       38.551170           1
 m_sumb_d                               33.964269       92148
 m_alltoallv_z                          26.510950       45424
 rpro_isp                               26.407047          26
 newband                                23.091154        7299
 sphpro_fast                            22.057883           2
 m_alltoall_d                           21.706533      107986
 map_backward                           18.798328       29302
 strnlr                                 18.448381           1
 redis_pw                               17.598840       39402
 map_scatter                            14.607118       45424
 potlok                                 14.165048           2
 map_gather                             13.451833       45424
 vhamil                                 12.466288       14518
 raccmu_                                12.270033        7259
 racc0mu                                11.953358        7259
 rpromu                                 10.835052        6543
 set_dd_paw                              8.624487           3
 w1_projall                              7.455502        5139
 redis_proj                              6.875016       49684
 fornlr                                  6.163027           1
 lincom                                  5.966847          44
 lapack                                  5.680848        7259
 crrexp_mul_work_add                     3.957335     1074332
 gemm                                    3.846841      537166
 rpromu_gemm                             3.686992      484182
 crrexp_mul_wave                         3.012757     1168460
 set_charge                              2.826461           1
 fftbrc_mpi                              2.653995         268
 w1_copy                                 2.549194       43554
 eccp                                    2.468181        4240
 proall                                  2.060903           1
 soft_charge                             1.529925           1
 m_bcast_d                               1.424646       15089
 orthch                                  1.117154           1
 apply_precond                           0.931475       10278
 setup_precond                           0.654350        4240
 setdij_                                 0.585915          29
 overl                                   0.525793       24800
 forhar                                  0.482602           2
 stufak                                  0.301776           2
 forloc                                  0.236533           1
 overl1                                  0.234679       14518
 phaser                                  0.215053          66
 pw_charge                               0.184567         324
 rspher_all                              0.157971          14
 fewald                                  0.138953           5
 fordep                                  0.119159           1
 choleski                                0.100332           4
 depsum                                  0.082246           1
 inisym                                  0.081152           1
 augmentation_charge                     0.063320           1
 chggra                                  0.045932           1
 strkin                                  0.027293           1
 strelo                                  0.022415           1
 truncate_high_frequency_w1              0.018372       18758
 strehar                                 0.013151           1
 pothar                                  0.012490           3
 fft_gq                                  0.008060           1
 rsp                                     0.004490           5
 rcp                                     0.000667           5
 posmap                                  0.000310           2
 crpa_reader                             0.000243           1
 potlok_metagga                          0.000044           2
 vectorpot                               0.000028           2
 set_rsgf_all                            0.000022           3
 rotate_active_occupied_orbital          0.000017           1
 set_dd_magatom                          0.000011           3
 redis_pw_over_bands                     0.000001           1

Profiling took   2.610263  1.325248  0.009638  0.009038 seconds
Profiling took   2.560669 seconds