 vasp.6.3.2 27Jun22 (build Jan 03 2024 23:05:41) complex

 executed on           IFC15_impi date 2024.07.30  23:52:17

 INCAR:
   ENCUT = 600.00
   EDIFF = 1.00e-06
   EDIFFG = -0.01
   IBRION = 2
   ALGO = Normal
   ISMEAR = 0
   SIGMA = 0.05
   LCHARG = .FALSE.
   LWAVE = .FALSE.
   LREAL = Auto
   NELM = 2000
   NSW = 5000
   NCORE = 16
   KPAR = 8
   ISPIN = 2
   GGA = MK
   PARAM1 = 0.1234
   PARAM2 = 1.0
   AGGAC = 0.0
   LUSE_VDW = .TRUE.
   LASPH = .TRUE.
   LDIPOL = .TRUE.
   DIPOL = 0.5 0.5 0.5
   IDIPOL = 3

 POTCAR:    PAW_PBE Mo_sv 02Feb2006
 POTCAR:    PAW_PBE S 06Sep2000
|           W    W    AA    RRRRR   N    N  II  N    N   GGGG   !!!           |
|           W    W   A  A   R    R  NN   N  II  NN   N  G    G  !!!           |
|           W    W  A    A  R    R  N N  N  II  N N  N  G       !!!           |
|           W WW W  AAAAAA  RRRRR   N  N N  II  N  N N  G  GGG   !            |
|           WW  WW  A    A  R   R   N   NN  II  N   NN  G    G                |
|           W    W  A    A  R    R  N    N  II  N    N   GGGG   !!!           |
|     You use a magnetic or noncollinear calculation, but did not specify     |
|     the initial magnetic moment with the MAGMOM tag. Note that a            |
|     default of 1 will be used for all atoms. This ferromagnetic setup       |
|     may break the symmetry of the crystal, in particular it may rule        |
|     out finding an antiferromagnetic solution. Thence, we recommend         |
|     setting the initial magnetic moment manually or verifying carefully     |
|     that this magnetic setup is desired.                                    |

   TITEL  = PAW_PBE Mo_sv 02Feb2006
   POMASS =   95.940; ZVAL   =   14.000    mass and valenz
   ENMAX  =  242.676; ENMIN  =  182.007 eV

   TITEL  = PAW_PBE S 06Sep2000
   POMASS =   32.066; ZVAL   =    6.000    mass and valenz
   ENMAX  =  258.689; ENMIN  =  194.016 eV

 Optimization of the real space projectors (new method)

 maximal supplied QI-value         = 15.12
 optimisation between [QCUT,QGAM] = [ 12.55, 25.10] = [ 44.09,176.36] Ry
 Optimized for a Real-space Cutoff    1.47 Angstroem

   l    n(q)    QCUT    max X(q) W(low)/X(q) W(high)/X(q)  e(spline)
   0     11    12.548     3.559    0.18E-04    0.60E-05    0.19E-06
   0     11    12.548    20.730    0.37E-04    0.13E-04    0.98E-07
   1     11    12.548     3.279    0.80E-06    0.70E-06    0.27E-07
   1     11    12.548     4.693    0.72E-04    0.11E-03    0.38E-06
   2     10    12.548    67.616    0.34E-03    0.45E-03    0.54E-06
   2     10    12.548    62.420    0.34E-03    0.45E-03    0.54E-06
 Optimization of the real space projectors (new method)

 maximal supplied QI-value         = 19.84
 optimisation between [QCUT,QGAM] = [ 12.50, 25.00] = [ 43.76,175.03] Ry
 Optimized for a Real-space Cutoff    1.06 Angstroem

   l    n(q)    QCUT    max X(q) W(low)/X(q) W(high)/X(q)  e(spline)
   0      8    12.501   187.594    0.26E-03    0.17E-03    0.97E-07
   0      8    12.501   164.243    0.26E-03    0.17E-03    0.96E-07
   1      7    12.501    67.533    0.50E-03    0.61E-03    0.91E-07
   1      7    12.501    50.729    0.48E-03    0.60E-03    0.90E-07
|               ----> ADVICE to this user running VASP <----                  |
|     You enforced a specific xc type in the INCAR file but a different       |
|     type was found in the POTCAR file.                                      |
|     I HOPE YOU KNOW WHAT YOU ARE DOING!                                     |

  PAW_PBE Mo_sv 02Feb2006               :
  PAW_PBE S 06Sep2000                   :

 POSCAR: Mo S
  positions in cartesian coordinates
 exchange correlation table for  LEXCH =       43
   RHO(1)=    0.500       N(1)  =     2000
   RHO(2)=  100.500       N(2)  =     4000

 VTST: version 4.1, (05/19/21)

 CHAIN: initializing optimizer

 OPT: Using VASP Conjugate-Gradient optimizer
 CHAIN: Read ICHAIN            0

 POSCAR: Mo S
  positions in cartesian coordinates

 ion  position               nearest neighbor table
   1  0.667  0.733  0.500-  36 2.41  65 2.41  40 2.41  37 2.41  66 2.41  39 2.41  11 3.16   3 3.16
                            13 3.16  23 3.16  19 3.16  14 3.16
   2  0.267  0.933  0.500-  71 2.41  47 2.41  51 2.41  72 2.41  48 2.41  49 2.41  25 3.16   4 3.16
                            18 3.16  10 3.16  17 3.16   8 3.16
   3  0.667  0.933  0.500-  36 2.41  67 2.41  33 2.41  37 2.41  45 2.41  32 2.41  10 3.16   1 3.16
                            11 3.16   9 3.16  23 3.16   6 3.16
   4  0.267  0.733  0.500-  52 2.41  71 2.41  69 2.41  46 2.41  72 2.41  70 2.41  18 3.16   2 3.16
                            20 3.16  10 3.16   5 3.16  11 3.16
   5  0.267  0.533  0.500-  60 2.41  57 2.41  69 2.41  68 2.41  58 2.41  70 2.41  20 3.16   7 3.16
                            22 3.16   4 3.16  13 3.16  11 3.16
   6  0.867  0.133  0.500-  35 2.41  33 2.41  29 2.41  30 2.41  32 2.41  42 2.41  23 3.16  24 3.16
                             9 3.16  16 3.16   3 3.16  22 3.16
   7  0.267  0.333  0.500-  55 2.41  60 2.41  50 2.41  56 2.41  68 2.41  59 2.41  22 3.16   5 3.16
                            24 3.16  13 3.16  15 3.16  17 3.16
   8  0.467  0.133  0.500-  73 2.41  61 2.41  51 2.41  74 2.41  49 2.41  62 2.41   9 3.16  12 3.16
                            10 3.16  15 3.16  17 3.16   2 3.16
   9  0.667  0.133  0.500-  33 2.41  26 2.41  73 2.41  32 2.41  28 2.41  74 2.41   8 3.16  10 3.16
                             3 3.16   6 3.16  12 3.16  16 3.16
  10  0.467  0.933  0.500-  67 2.41  71 2.41  73 2.41  45 2.41  72 2.41  74 2.41   3 3.16  11 3.16
                             9 3.16   4 3.16   2 3.16   8 3.16
  11  0.467  0.733  0.500-  65 2.41  67 2.41  69 2.41  66 2.41  45 2.41  70 2.41   1 3.16  10 3.16
                             3 3.16   4 3.16  13 3.16   5 3.16
  12  0.667  0.333  0.500-  44 2.41  61 2.41  26 2.41  43 2.41  62 2.41  28 2.41  15 3.16  14 3.16
                             8 3.16  21 3.16  16 3.16   9 3.16
  13  0.467  0.533  0.500-  63 2.41  60 2.41  65 2.41  64 2.41  66 2.41  68 2.41  14 3.16  15 3.16
                             1 3.16   7 3.16   5 3.16  11 3.16
  14  0.667  0.533  0.500-  44 2.41  40 2.41  63 2.41  43 2.41  39 2.41  64 2.41  13 3.16  12 3.16
                            15 3.16   1 3.16  21 3.16  19 3.16
  15  0.467  0.333  0.500-  61 2.41  50 2.41  63 2.41  62 2.41  59 2.41  64 2.41  12 3.16  13 3.16
                            14 3.16   8 3.16   7 3.16  17 3.16
  16  0.867  0.333  0.500-  29 2.41  26 2.41  38 2.41  42 2.41  41 2.41  28 2.41  21 3.16  20 3.16
                             6 3.16  12 3.16  22 3.16   9 3.16
  17  0.267  0.133  0.500-  51 2.41  50 2.41  53 2.41  49 2.41  54 2.41  59 2.41  24 3.16  25 3.16
                             8 3.16   2 3.16   7 3.16  15 3.16
  18  0.067  0.733  0.500-  52 2.41  47 2.41  31 2.41  46 2.41  48 2.41  27 2.41   4 3.16  25 3.16
                             2 3.16  20 3.16  19 3.16  21 3.16
  19  0.867  0.733  0.500-  31 2.41  34 2.41  40 2.41  27 2.41  39 2.41  75 2.41  23 3.16  25 3.16
                            21 3.16   1 3.16  18 3.16  14 3.16
  20  0.067  0.533  0.500-  57 2.41  52 2.41  38 2.41  58 2.41  46 2.41  41 2.41   5 3.16  22 3.16
                             4 3.16  16 3.16  21 3.16  18 3.16
  21  0.867  0.533  0.500-  38 2.41  31 2.41  44 2.41  41 2.41  43 2.41  27 2.41  16 3.16  12 3.16
                            14 3.16  19 3.16  20 3.16  18 3.16
  22  0.067  0.333  0.500-  55 2.41  57 2.41  29 2.41  56 2.41  58 2.41  42 2.41   7 3.16  20 3.16
                             5 3.16  16 3.16  24 3.16   6 3.16
  23  0.867  0.933  0.500-  34 2.41  36 2.41  35 2.41  75 2.41  37 2.41  30 2.41  19 3.16   1 3.16
                             6 3.16   3 3.16  25 3.16  24 3.16
  24  0.067  0.133  0.500-  53 2.41  55 2.41  35 2.41  54 2.41  56 2.41  30 2.41  17 3.16   7 3.16
                             6 3.16  22 3.16  25 3.16  23 3.16
  25  0.067  0.933  0.500-  47 2.41  34 2.41  53 2.41  48 2.41  75 2.41  54 2.41   2 3.16  18 3.16
                            17 3.16  19 3.16  23 3.16  24 3.16
  26  0.733  0.267  0.568-   9 2.41  16 2.41  12 2.41
  27  0.933  0.667  0.432-  19 2.41  21 2.41  18 2.41
  28  0.733  0.267  0.432-   9 2.41  16 2.41  12 2.41
  29  0.933  0.267  0.568-  16 2.41   6 2.41  22 2.41
  30  0.933  0.067  0.432-   6 2.41  24 2.41  23 2.41
  31  0.933  0.667  0.568-  19 2.41  21 2.41  18 2.41
  32  0.733  0.067  0.432-   9 2.41   6 2.41   3 2.41
  33  0.733  0.067  0.568-   9 2.41   6 2.41   3 2.41
  34  0.933  0.867  0.568-  23 2.41  19 2.41  25 2.41
  35  0.933  0.067  0.568-   6 2.41  24 2.41  23 2.41
  36  0.733  0.867  0.568-   3 2.41   1 2.41  23 2.41
  37  0.733  0.867  0.432-   3 2.41   1 2.41  23 2.41
  38  0.933  0.467  0.568-  21 2.41  16 2.41  20 2.41
  39  0.733  0.667  0.432-  14 2.41  19 2.41   1 2.41
  40  0.733  0.667  0.568-  14 2.41  19 2.41   1 2.41
  41  0.933  0.467  0.432-  21 2.41  16 2.41  20 2.41
  42  0.933  0.267  0.432-  16 2.41   6 2.41  22 2.41
  43  0.733  0.467  0.432-  14 2.41  12 2.41  21 2.41
  44  0.733  0.467  0.568-  14 2.41  12 2.41  21 2.41
  45  0.533  0.867  0.432-  10 2.41   3 2.41  11 2.41
  46  0.133  0.667  0.432-  18 2.41   4 2.41  20 2.41
  47  0.133  0.867  0.568-  25 2.41  18 2.41   2 2.41
  48  0.133  0.867  0.432-  25 2.41  18 2.41   2 2.41
  49  0.333  0.067  0.432-  17 2.41   8 2.41   2 2.41
  50  0.333  0.267  0.568-  15 2.41  17 2.41   7 2.41
  51  0.333  0.067  0.568-  17 2.41   8 2.41   2 2.41
  52  0.133  0.667  0.568-  18 2.41   4 2.41  20 2.41
  53  0.133  0.067  0.568-  24 2.41  17 2.41  25 2.41
  54  0.133  0.067  0.432-  24 2.41  17 2.41  25 2.41
  55  0.133  0.267  0.568-  22 2.41   7 2.41  24 2.41
  56  0.133  0.267  0.432-  22 2.41   7 2.41  24 2.41
  57  0.133  0.467  0.568-  20 2.41   5 2.41  22 2.41
  58  0.133  0.467  0.432-  20 2.41   5 2.41  22 2.41
  59  0.333  0.267  0.432-  15 2.41  17 2.41   7 2.41
  60  0.333  0.467  0.568-   5 2.41   7 2.41  13 2.41
  61  0.533  0.267  0.568-  15 2.41  12 2.41   8 2.41
  62  0.533  0.267  0.432-  15 2.41  12 2.41   8 2.41
  63  0.533  0.467  0.568-  13 2.41  14 2.41  15 2.41
  64  0.533  0.467  0.432-  13 2.41  14 2.41  15 2.41
  65  0.533  0.667  0.568-  11 2.41   1 2.41  13 2.41
  66  0.533  0.667  0.432-  11 2.41   1 2.41  13 2.41
  67  0.533  0.867  0.568-  10 2.41   3 2.41  11 2.41
  68  0.333  0.467  0.432-   5 2.41   7 2.41  13 2.41
  69  0.333  0.667  0.568-   5 2.41  11 2.41   4 2.41
  70  0.333  0.667  0.432-   5 2.41  11 2.41   4 2.41
  71  0.333  0.867  0.568-   2 2.41   4 2.41  10 2.41
  72  0.333  0.867  0.432-   2 2.41   4 2.41  10 2.41
  73  0.533  0.067  0.568-   8 2.41   9 2.41  10 2.41
  74  0.533  0.067  0.432-   8 2.41   9 2.41  10 2.41
  75  0.933  0.867  0.432-  23 2.41  19 2.41  25 2.41

  LATTYP: Found a hexagonal cell.
 ALAT       =    15.8227970706
 C/A-ratio  =     1.4623157837

  Lattice vectors:

 A1 = (   7.9113985353, -13.7029442220,   0.0000000000)
 A2 = (   7.9113985353,  13.7029442220,   0.0000000000)
 A3 = (   0.0000000000,   0.0000000000,  23.1379258980)

Analysis of symmetry for initial positions (statically):
 Subroutine PRICEL returns following result:

[...]

[...]
  315              fftbas_plan_mpi                       0.094754                      9   6
  316                dfftw_execute                         0.022553                   27   7
  317                map_backward                          0.024898                    6   7
  318                  map_gather                            0.002496                  3   8
  319                  m_alltoallv_z                         0.010960                  3   8
  320                  map_scatter                           0.011370                  3   8
  321                map_forward                           0.041897                   12   7
  322                  map_gather                            0.017317                  6   8
  323                  m_alltoallv_z                         0.020123                  6   8
  324                  map_scatter                           0.004337                  6   8
  325          m_sumb_d                              0.000364                          6   4
  326          pothar                                0.009363                          3   4
  327            m_sumb_d                              0.001427                        3   5
  328        brmix                                 0.197388                            3   3
  329          m_sumb_d                              0.007532                         18   4
  330          brpre                                 0.000934                          6   4
  331          setg0                                 0.019388                          3   4
  332          broyd                                 0.062962                          3   4
  333            m_sumb_d                              0.009743                       60   5
  334            brget                                 0.013915                      250   5
  335            brsav                                 0.005252                       55   5
  336          m_bcast_z                             0.078282                          3   4
  337          m_bcast_d                             0.000552                          3   4
  338        m_bcast_d                             0.009129                            6   3
  339      potlok                               19.363968                              3   2
  340        fft3d_mpi                             2.619597                          258   3
  341          fftbrc_mpi                            2.479166                        258   4
  342            fftbas_plan_mpi                       2.478433                      258   5
  343              dfftw_execute                         0.628056                    774   6
  344              map_forward                           0.747038                    264   6
  345                map_gather                            0.225394                  138   7
  346                m_alltoallv_z                         0.432162                  138   7
  347                map_scatter                           0.086892                  138   7
  348              map_backward                          0.947477                    252   6
  349                map_gather                            0.097190                  126   7
  350                m_alltoallv_z                         0.463853                  126   7
  351                map_scatter                           0.383812                  126   7
  352        m_sumb_d                              0.011955                           24   3
  353        fewald                                0.004711                            6   3
  354          rsp                                   0.004023                          6   4
  355          rcp                                   0.000610                          6   4
  356        pothar                                0.010253                            3   3
  357          m_sumb_d                              0.004928                          3   4
  358        m_bcast_d                             0.013280                            6   3
  359      potlok_metagga                        0.000003                              3   2
  360      set_dd_magatom                        0.000003                              3   2
  361      set_dd_paw                            8.373085                              3   2
  362        set_rsgf_all                          0.000005                            3   3
  363        m_sumb_d                              8.372115                           24   3
  364      wavpre_noio                           0.337407                              2   2
  365        stufak                                0.298982                            2   3
  366      densta                                0.001618                              1   2
  367        m_sumb_d                              0.000928                           10   3

 Flat profile

 ggemm                                 295.310905       19974
 potlok                                252.124521          45
 m_sumb_d                              161.243468      176780
 dfftw_execute                         145.096222      295980
 orth1                                  86.684668       45102
 total_time                             84.240573           1
 eddav                                  83.196824          46
 set_charge                             77.540475          42
 m_alltoallv_z                          71.835070       98834
 fftbas_plan_mpi                        50.761354       98660
 m_alltoall_d                           47.018772      220660
 map_scatter                            37.471542       98834
 fftwav_mpi                             37.229242       64706
 map_gather                             33.092267       98834
 vhamil                                 25.488028       29658
 map_forward                            23.110067      133630
 force_and_stress                       16.727805           3
 lincom                                 13.829547          98
 m_bcast_z                              13.477508       18311
 lapack                                 10.019468       15006
 crrexp_mul_work_add                     8.108103     2224350
 gemm                                    7.727290     1098900
 rpromu_gemm                             7.052551      891150
 crrexp_mul_wave                         5.455096     2112000
 eccp                                    5.223338        9844
 w1_copy                                 5.193348       88974
 racc0mu                                 5.174216       14652
 rpromu                                  4.637119       11882
 redis_pw                                4.347850       79326
 pw_charge                               3.991895        6888
 fftext_mpi                              3.329088       29658
 fft3d_mpi                               2.608970       98660
 kinhamil                                2.324871       29658
 setdij_                                 2.268008         124
 augmentation_charge                     1.843912          42
 apply_precond                           1.796779       19814
 m_bcast_d                               1.670516       30163
 forhar                                  1.456237           6
 redis_proj                              1.214745       99146
 setup_precond                           1.164039        9844
 overl                                   1.073030       49478
 elmin                                   0.863878           3
 forloc                                  0.721897           3
 map_backward                            0.616705       63690
 overl1                                  0.507270       29658
 stufak                                  0.449659           3
 rspher_all                              0.444257          40
 brmix                                   0.433898          42
 hamiltmu                                0.409195       15006
 phaser                                  0.401576         131
 newband                                 0.380181       15098
 broyd                                   0.352464          42
 setg0                                   0.289348          48
 fftbas_mpi                              0.283642       94364
 soft_charge                             0.251187          42
 inisym                                  0.208625           1
 raccmu_                                 0.190827       15006
 racc0                                   0.172308         354
 brget                                   0.156355        2625
 rpro1                                   0.137247         262
 choleski                                0.127546           6
 pothar                                  0.084980          48
 brsav                                   0.081823         659
 w1_projall                              0.069195       10038
 rsp                                     0.065664          93
 rpro_isp                                0.062169          39
 depsum                                  0.051417          42
 strnlr                                  0.046907           3
 strelo                                  0.043120           3
 densta                                  0.041361          47
 strkin                                  0.039460           3
 truncate_high_frequency_w1              0.038438       39502
 wavpre_noio                             0.038425           2
 strehar                                 0.033565           3
 chggra                                  0.032342           3
 set_dd_paw                              0.016142          48
 fornlr                                  0.014980           3
 fftbrc_mpi                              0.012750        4296
 fft_gq                                  0.011393          42
 brpre                                   0.011272          84
 orthch                                  0.010184           3
 rcp                                     0.009399          93
 posmap                                  0.009058           2
 fewald                                  0.007655          93
 brgrid                                  0.001452           1
 vectorpot                               0.000896          43
 fordep                                  0.000615           3
 crpa_reader                             0.000288           1
 potlok_metagga                          0.000116          45
 set_dd_magatom                          0.000108          48
 set_rsgf_all                            0.000094          48
 proall                                  0.000082           3
 rotate_active_occupied_orbital          0.000028           3
 redis_pw_over_bands                     0.000007           3
  summed up times    1651.39277696609

 Accumulative profile

 total_time                           1651.392777           1
 elmin                                1443.789136           3
 eddav                                 938.446912          46
 fft3d_mpi                             364.888590       98660
 fftbas_plan_mpi                       361.983228       98660
 fftbas_mpi                            318.923501       94364
 ggemm                                 295.310905       19974
 potlok                                294.417915          45
 fftwav_mpi                            261.498103       64706
 m_sumb_d                              161.243468      176780
 hamiltmu                              152.253358       15006
 dfftw_execute                         145.096222      295980
 set_dd_paw                            135.333210          48
 set_charge                            116.347567          42
 map_forward                           112.742113      133630
 kinhamil                              100.684829       29658
 fftext_mpi                             98.359958       29658
 orth1                                  86.684668       45102
 force_and_stress                       78.200806           3
 m_alltoallv_z                          71.835070       98834
 newband                                53.850855       15098
 map_backward                           53.383538       63690
 m_alltoall_d                           47.018772      220660
 fftbrc_mpi                             43.356119        4296
 rpro_isp                               39.863415          39
 redis_pw                               38.552286       79326
 map_scatter                            37.471542       98834
 map_gather                             33.092267       98834
 soft_charge                            32.906660          42
 strnlr                                 28.382811           3
 raccmu_                                25.671306       15006
 vhamil                                 25.488028       29658
 racc0mu                                24.643237       14652
 rpromu                                 19.988307       11882
 w1_projall                             15.123780       10038
 redis_proj                             14.029082       99146
 lincom                                 13.829547          98
 m_bcast_z                              13.477508       18311
 lapack                                 10.019468       15006
 fornlr                                  9.361276           3
 crrexp_mul_work_add                     8.108103     2224350
 gemm                                    7.727290     1098900
 rpromu_gemm                             7.052551      891150
 eccp                                    5.736192        9844
 crrexp_mul_wave                         5.455096     2112000
 w1_copy                                 5.193348       88974
 pw_charge                               3.991895        6888
 proall                                  3.098497           3
 augmentation_charge                     2.884416          42
 setdij_                                 2.504971         124
 brmix                                   2.084904          42
 apply_precond                           1.796779       19814
 orthch                                  1.706456           3
 m_bcast_d                               1.670516       30163
 setup_precond                           1.507440        9844
 forhar                                  1.471757           6
 overl                                   1.073030       49478
 forloc                                  0.727767           3
 broyd                                   0.675807          42
 overl1                                  0.507270       29658
 stufak                                  0.449659           3
 rspher_all                              0.444257          40
 phaser                                  0.401576         131
 fordep                                  0.359826           3
 depsum                                  0.338880          42
 wavpre_noio                             0.337407           2
 racc0                                   0.329973         354
 fft_gq                                  0.318193          42
 setg0                                   0.289348          48
 rpro1                                   0.235758         262
 inisym                                  0.217683           1
 brget                                   0.156355        2625
 chggra                                  0.141616           3
 pothar                                  0.131420          48
 choleski                                0.127546           6
 densta                                  0.112187          47
 fewald                                  0.097664          93
 brsav                                   0.081823         659
 rsp                                     0.065664          93
 strelo                                  0.048194           3
 strkin                                  0.044749           3
 truncate_high_frequency_w1              0.038438       39502
 strehar                                 0.035513           3
 brpre                                   0.011272          84
 rcp                                     0.009399          93
 posmap                                  0.009058           2
 brgrid                                  0.001452           1
 vectorpot                               0.000896          43
 crpa_reader                             0.000288           1
 potlok_metagga                          0.000116          45
 set_dd_magatom                          0.000108          48
 set_rsgf_all                            0.000094          48
 rotate_active_occupied_orbital          0.000028           3
 redis_pw_over_bands                     0.000007           3

Profiling took   5.165583  2.628321  0.009621  0.008900 seconds
Profiling took   5.102901 seconds