 vasp.6.3.2 27Jun22 (build Jul 18 2024 17:50:03) complex
 executed on              LinuxNV date 2024.08.13  01:27:02

 INCAR:
   ENCUT = 600.00
   EDIFF = 1.00e-06
   EDIFFG = -0.05
   IBRION = 2
   ALGO = Normal
   ISMEAR = 0
   SIGMA = 0.05
   LCHARG = .FALSE.
   LWAVE = .FALSE.
   LREAL = Auto
   NELM = 2000
   NSW = 5000
   NCORE = 16
   KPAR = 8
   ISPIN = 2
   GGA = MK
   PARAM1 = 0.1234
   PARAM2 = 1.0
   AGGAC = 0.0
   LUSE_VDW = .TRUE.
   LASPH = .TRUE.
   LDIPOL = .TRUE.
   DIPOL = 0.5 0.5 0.5
   IDIPOL = 3

 POTCAR:    PAW_PBE Mo_sv 02Feb2006
 POTCAR:    PAW_PBE S 06Sep2000
 POTCAR:    PAW_PBE C 08Apr2002
 POTCAR:    PAW_PBE F 08Apr2002
 POTCAR:    PAW_PBE H 15Jun2001
|           W    W    AA    RRRRR   N    N  II  N    N   GGGG   !!!           |
|           W    W   A  A   R    R  NN   N  II  NN   N  G    G  !!!           |
|           W    W  A    A  R    R  N N  N  II  N N  N  G       !!!           |
|           W WW W  AAAAAA  RRRRR   N  N N  II  N  N N  G  GGG   !            |
|           WW  WW  A    A  R   R   N   NN  II  N   NN  G    G                |
|           W    W  A    A  R    R  N    N  II  N    N   GGGG   !!!           |
|     You use a magnetic or noncollinear calculation, but did not specify     |
|     the initial magnetic moment with the MAGMOM tag. Note that a            |
|     default of 1 will be used for all atoms. This ferromagnetic setup       |
|     may break the symmetry of the crystal, in particular it may rule        |
|     out finding an antiferromagnetic solution. Thence, we recommend         |
|     setting the initial magnetic moment manually or verifying carefully     |
|     that this magnetic setup is desired.                                    |

   TITEL  = PAW_PBE Mo_sv 02Feb2006
   POMASS =   95.940; ZVAL   =   14.000    mass and valenz
   ENMAX  =  242.676; ENMIN  =  182.007 eV

   TITEL  = PAW_PBE S 06Sep2000
   POMASS =   32.066; ZVAL   =    6.000    mass and valenz
   ENMAX  =  258.689; ENMIN  =  194.016 eV

   TITEL  = PAW_PBE C 08Apr2002
   POMASS =   12.011; ZVAL   =    4.000    mass and valenz
   ENMAX  =  400.000; ENMIN  =  300.000 eV

   TITEL  = PAW_PBE F 08Apr2002
   POMASS =   18.998; ZVAL   =    7.000    mass and valenz
   ENMAX  =  400.000; ENMIN  =  300.000 eV

   TITEL  = PAW_PBE H 15Jun2001
   POMASS =    1.000; ZVAL   =    1.000    mass and valenz
   ENMAX  =  250.000; ENMIN  =  200.000 eV

 Optimization of the real space projectors (new method)

 maximal supplied QI-value         = 15.12
 optimisation between [QCUT,QGAM] = [ 12.55, 25.10] = [ 44.09,176.36] Ry
 Optimized for a Real-space Cutoff    1.47 Angstroem

   l    n(q)    QCUT    max X(q) W(low)/X(q) W(high)/X(q)  e(spline)
   0     11    12.548     3.559    0.18E-04    0.60E-05    0.19E-06
   0     11    12.548    20.730    0.37E-04    0.13E-04    0.98E-07
   1     11    12.548     3.279    0.80E-06    0.70E-06    0.27E-07
   1     11    12.548     4.693    0.72E-04    0.11E-03    0.38E-06
   2     10    12.548    67.616    0.34E-03    0.45E-03    0.54E-06
   2     10    12.548    62.420    0.34E-03    0.45E-03    0.54E-06
 Optimization of the real space projectors (new method)

[...]

   l    n(q)    QCUT    max X(q) W(low)/X(q) W(high)/X(q)  e(spline)
   0      8    12.378    14.049    0.35E-03    0.80E-04    0.14E-06
   0      8    12.378     8.945    0.50E-03    0.13E-03    0.19E-06
   1      7    12.378     7.086    0.49E-03    0.21E-03    0.21E-06
   1      7    12.378     6.747    0.44E-03    0.20E-03    0.19E-06
 Optimization of the real space projectors (new method)

 maximal supplied QI-value         = 34.20
 optimisation between [QCUT,QGAM] = [ 12.31, 24.97] = [ 42.46,174.58] Ry
 Optimized for a Real-space Cutoff    1.00 Angstroem

   l    n(q)    QCUT    max X(q) W(low)/X(q) W(high)/X(q)  e(spline)
   0      7    12.313    19.460    0.14E-03    0.42E-03    0.16E-06
   0      7    12.313    12.209    0.12E-03    0.40E-03    0.16E-06
   1      7    12.313     4.655    0.33E-03    0.59E-03    0.89E-07
|               ----> ADVICE to this user running VASP <----                  |
|     You enforced a specific xc type in the INCAR file but a different       |
|     type was found in the POTCAR file.                                      |
|     I HOPE YOU KNOW WHAT YOU ARE DOING!                                     |

  PAW_PBE Mo_sv 02Feb2006               :
  PAW_PBE S 06Sep2000                   :
  PAW_PBE C 08Apr2002                   :
  PAW_PBE F 08Apr2002                   :
  PAW_PBE H 15Jun2001                   :

 POSCAR: Mo S  C  F  H
  positions in cartesian coordinates
 exchange correlation table for  LEXCH =       43
   RHO(1)=    0.500       N(1)  =     2000
   RHO(2)=  100.500       N(2)  =     4000

 VTST: version 4.1, (05/19/21)

 CHAIN: initializing optimizer

 OPT: Using VASP Conjugate-Gradient optimizer
 CHAIN: Read ICHAIN             0

 POSCAR: Mo S  C  F  H
  positions in cartesian coordinates

 ion  position               nearest neighbor table
   1  0.134  0.065  0.500- 162 2.41 159 2.41 144 2.41 147 2.41 141 2.41 138 2.41  72 3.16  71 3.16
                            67 3.16  49 3.17  20 3.17  62 3.17
   2  0.668  0.732  0.670- 196 2.40 117 2.40 106 2.40 193 2.41 108 2.41 114 2.42  37 3.16   8 3.16
                            64 3.16  55 3.17  32 3.19  42 3.20
   3  0.268  0.932  0.669- 155 2.40 215 2.41 143 2.41 218 2.41 140 2.41 149 2.41   9 3.16  51 3.16
                            50 3.16  25 3.16  74 3.16  28 3.17
   4  0.266  0.933  0.330- 142 2.41 217 2.41 148 2.41 214 2.41 139 2.41 146 2.41  29 3.16  75 3.16
                            24 3.16  70 3.16  52 3.17  10 3.17
   5  0.333  0.865  0.500- 136 2.41 210 2.41 213 2.41 197 2.41 216 2.41 207 2.41  71 3.16  72 3.16
                            53 3.16  30 3.16  12 3.17  23 3.17
   6  0.734  0.866  0.500- 119 2.41 116 2.41 100 2.41  76 2.41 110 2.41  89 2.41  46 3.16  22 3.16
                            34 3.16  30 3.16  67 3.17  49 3.17
   7  0.666  0.933  0.330- 201 2.41 105 2.41  94 2.41 198 2.41 107 2.41  97 2.41  63 3.16  29 3.16
                            16 3.16  11 3.16  26 3.16  33 3.17
   8  0.668  0.932  0.669-  96 2.41 108 2.41 199 2.41  93 2.41 106 2.41 134 2.41   2 3.16  27 3.16
                            64 3.16  17 3.17  32 3.17  28 3.17
   9  0.268  0.732  0.670- 209 2.41 137 2.41 157 2.41 215 2.41 218 2.41 212 2.41  32 3.15  13 3.16
                            51 3.16   3 3.16  56 3.16  28 3.17
  10  0.266  0.732  0.330- 211 2.41 145 2.41 217 2.41 214 2.41 158 2.41 208 2.41  52 3.16  57 3.16
                            33 3.16  14 3.16  29 3.17   4 3.17
  11  0.666  0.732  0.330- 195 2.41 105 2.41 118 2.41 115 2.41 192 2.41 107 2.41  33 3.16  63 3.16
                            41 3.16  38 3.16   7 3.16  69 3.17
  12  0.333  0.665  0.500- 204 2.41 207 2.41 194 2.41 191 2.41 210 2.41 179 2.41  59 3.16  15 3.16
                            34 3.16   5 3.17  53 3.17  30 3.17
  13  0.268  0.532  0.671- 206 2.40 209 2.41 173 2.41 176 2.41 181 2.41 212 2.41   9 3.16  56 3.16
                            32 3.16  60 3.16  18 3.18  37 3.18
  14  0.266  0.532  0.330- 211 2.41 205 2.41 175 2.41 172 2.41 208 2.41 180 2.41  38 3.16  19 3.16
                            61 3.16  33 3.16  10 3.16  57 3.17
  15  0.334  0.465  0.500- 204 2.41 186 2.41 153 2.41 179 2.41 150 2.41 188 2.41  39 3.16  34 3.16
                            12 3.16  62 3.16  20 3.16  59 3.16
  16  0.866  0.133  0.330-  90 2.41  94 2.41 124 2.41  97 2.41 102 2.41 132 2.41  61 3.16  47 3.16
                             7 3.16  66 3.17  63 3.17  26 3.17
  17  0.868  0.132  0.669-  96 2.41 122 2.41  88 2.41 104 2.41  91 2.41  93 2.41  64 3.16  60 3.17
                            65 3.17  48 3.17   8 3.17  27 3.17
  18  0.269  0.332  0.671- 206 2.39 152 2.40 167 2.41 181 2.41 170 2.41 178 2.42  50 3.16  65 3.17
                            37 3.17  60 3.17  13 3.18  43 3.21
  19  0.266  0.332  0.330- 205 2.41 154 2.41 151 2.41 169 2.41 180 2.41 166 2.41  61 3.16  66 3.16
                            70 3.16  14 3.16  44 3.16  38 3.17
  20  0.334  0.265  0.500- 183 2.41 150 2.41 144 2.41 202 2.41 153 2.41 147 2.41  45 3.16  62 3.16
                            39 3.16  15 3.16   1 3.17  71 3.17
  21  0.934  0.266  0.500- 131 2.41  80 2.41 123 2.41 168 2.41  81 2.41 165 2.41  73 3.16  59 3.16
                            49 3.16  31 3.17  22 3.17  62 3.17
  22  0.734  0.065  0.500- 101 2.41  76 2.41  80 2.41  95 2.41 131 2.41 110 2.41   6 3.16  31 3.16
                            23 3.16  30 3.17  21 3.17  49 3.17
  23  0.534  0.065  0.500- 219 2.41 136 2.41 222 2.41 197 2.41 101 2.41  95 2.41  71 3.16  31 3.16
                            30 3.16  22 3.16  45 3.17   5 3.17
  24  0.466  0.133  0.330- 148 2.41 203 2.41 146 2.41 200 2.41 184 2.41 220 2.41  26 3.16  70 3.16
                            35 3.16   4 3.16  44 3.16  29 3.17
  25  0.468  0.131  0.669- 221 2.40 182 2.41 223 2.41 155 2.41 149 2.41 185 2.42  43 3.12  28 3.15
                            36 3.16  27 3.16   3 3.16  50 3.17
  26  0.666  0.133  0.330- 203 2.41  94 2.41  78 2.41  97 2.41 220 2.41  84 2.41  24 3.16  47 3.16
                             7 3.16  35 3.16  16 3.17  29 3.17
  27  0.668  0.132  0.669-  79 2.40 221 2.41  96 2.41  93 2.41 223 2.41  85 2.41  25 3.16  28 3.16
                            36 3.16   8 3.16  17 3.17  48 3.17
  28  0.468  0.932  0.669- 199 2.40 221 2.41 223 2.41 218 2.41 215 2.41 134 2.41  32 3.15  25 3.15
                            27 3.16   3 3.17   8 3.17   9 3.17
  29  0.466  0.932  0.330- 203 2.41 201 2.41 217 2.41 214 2.41 220 2.41 198 2.41   4 3.16  33 3.16
                             7 3.16  10 3.17  26 3.17  24 3.17
  30  0.533  0.865  0.500-  76 2.41 197 2.41 194 2.41 136 2.41 191 2.41 110 2.41  23 3.16  34 3.16
                             5 3.16   6 3.16  22 3.17  12 3.17
  31  0.733  0.265  0.500- 123 2.41  77 2.41  81 2.41  95 2.41  87 2.41 101 2.41  22 3.16  73 3.16
                            23 3.16  45 3.16  21 3.17  40 3.17
  32  0.467  0.733  0.670- 193 2.38 212 2.40 134 2.40 196 2.41 199 2.41 209 2.41  28 3.15   9 3.15
                            13 3.16   8 3.17  37 3.18   2 3.19
  33  0.466  0.732  0.330- 195 2.41 211 2.41 201 2.41 208 2.41 198 2.41 192 2.41  11 3.16  29 3.16
                            10 3.16  14 3.16  38 3.16   7 3.17
  34  0.534  0.665  0.500- 191 2.41 188 2.41 194 2.41 186 2.41 116 2.41 119 2.41  46 3.16  15 3.16
                            30 3.16  39 3.16  12 3.16   6 3.16
  35  0.666  0.333  0.329-  84 2.41 130 2.41 184 2.41  78 2.41 127 2.41 200 2.41  41 3.16  44 3.16
                            24 3.16  68 3.16  26 3.16  47 3.16
  36  0.667  0.331  0.669-  85 2.41  79 2.41 182 2.41 126 2.41 185 2.42 129 2.42  43 3.11  42 3.14
                            25 3.16  27 3.16  48 3.17  58 3.17
  37  0.469  0.533  0.674- 193 2.38 181 2.40 206 2.43 196 2.43 190 2.44 225 2.64   2 3.16  18 3.17
                            42 3.18  13 3.18  32 3.18  43 3.24
  38  0.466  0.532  0.330- 205 2.41 189 2.41 195 2.41 135 2.41 192 2.41 180 2.41  44 3.16  14 3.16
                            41 3.16  11 3.16  33 3.16  19 3.17
[...]
   0.513E+00 -.195E+01 0.119E+03   -.510E+00 0.196E+01 -.119E+03   -.380E-02 -.473E-02 0.676E-03   0.249E-05 0.628E-06 -.192E-05
   -.714E+02 -.190E+02 -.335E+04   0.714E+02 0.189E+02 0.335E+04   -.550E-02 0.626E-01 -.651E-01   0.770E-05 0.200E-05 0.117E-04
   0.172E+02 0.752E+01 -.353E+04   -.171E+02 -.749E+01 0.353E+04   -.156E-01 -.251E-01 -.554E-01   -.288E-05 -.408E-05 0.743E-05
   0.728E-01 0.163E+00 0.372E+04   -.768E-01 -.166E+00 -.372E+04   0.441E-02 0.225E-02 0.385E-01   -.237E-05 -.203E-05 -.300E-04
   0.251E+01 0.101E+01 0.119E+03   -.251E+01 -.101E+01 -.119E+03   -.197E-02 -.533E-02 0.478E-02   0.104E-05 -.309E-07 -.157E-05
   -.240E+01 -.157E+01 0.123E+03   0.240E+01 0.157E+01 -.123E+03   0.440E-02 0.280E-02 -.108E-02   -.909E-06 -.612E-06 -.497E-05
   -.616E+00 -.520E+00 0.372E+04   0.611E+00 0.519E+00 -.372E+04   0.227E-02 0.772E-03 0.410E-01   0.215E-05 0.226E-05 -.241E-04
   -.504E+02 -.506E+02 -.348E+04   0.505E+02 0.505E+02 0.348E+04   -.541E-01 0.203E-02 -.157E-01   -.597E-06 0.326E-05 0.954E-05
   0.102E+02 -.430E+02 -.352E+04   -.102E+02 0.430E+02 0.352E+04   -.186E-01 -.251E-01 -.367E-01   0.154E-05 0.833E-06 0.949E-05
   -.663E+00 -.213E+00 0.372E+04   0.663E+00 0.212E+00 -.372E+04   0.138E-02 -.399E-03 0.438E-01   -.432E-06 0.349E-05 -.271E-04
   -.113E+01 -.167E+00 0.372E+04   0.113E+01 0.164E+00 -.372E+04   -.138E-02 0.443E-02 0.381E-01   0.538E-05 0.274E-05 -.134E-04
   0.224E+01 -.190E+01 0.117E+03   -.224E+01 0.190E+01 -.117E+03   0.384E-02 0.448E-02 0.238E-02   -.707E-06 -.251E-05 -.467E-05
   0.460E+02 -.701E+02 -.348E+04   -.461E+02 0.701E+02 0.349E+04   0.740E-01 -.539E-01 -.455E-01   -.279E-05 0.947E-05 0.131E-04
   -.833E-01 -.892E+00 0.372E+04   0.813E-01 0.891E+00 -.372E+04   -.481E-03 -.227E-02 0.423E-01   -.941E-06 0.598E-05 -.191E-04
   0.265E+01 -.298E+01 0.119E+03   -.265E+01 0.297E+01 -.119E+03   -.326E-02 0.550E-02 -.170E-02   -.328E-06 -.158E-05 -.680E-05
   -.103E+00 -.125E-02 0.372E+04   0.994E-01 0.385E-04 -.372E+04   0.117E-02 -.174E-02 0.377E-01   -.675E-06 0.438E-06 -.297E-04
   -.195E+02 -.158E+02 -.353E+04   0.195E+02 0.158E+02 0.353E+04   -.102E-01 0.319E-01 -.212E-01   -.690E-06 0.186E-06 0.805E-05
   0.734E+02 -.264E+02 -.346E+04   -.734E+02 0.263E+02 0.346E+04   0.590E-02 0.143E+00 -.123E+00   -.558E-05 0.152E-05 0.106E-04
   0.121E+01 -.238E+00 0.372E+04   -.121E+01 0.236E+00 -.372E+04   -.301E-02 0.365E-02 0.385E-01   -.433E-05 0.251E-05 -.169E-04
   0.240E+01 -.299E+01 0.120E+03   -.240E+01 0.299E+01 -.120E+03   -.416E-02 -.477E-02 -.436E-02   0.151E-05 0.467E-06 -.537E-05
   -.246E+01 0.152E+01 0.117E+03   0.245E+01 -.153E+01 -.117E+03   0.758E-02 0.587E-02 -.208E-02   0.678E-06 -.105E-06 -.136E-05
   -.228E+01 0.137E+01 0.119E+03   0.228E+01 -.137E+01 -.119E+03   0.186E-02 -.976E-03 0.277E-02   0.102E-06 0.666E-06 -.184E-05
   0.691E+00 0.190E+01 0.124E+03   -.694E+00 -.190E+01 -.124E+03   0.527E-02 -.512E-02 0.711E-02   0.153E-05 0.203E-05 -.176E-05
   -.137E-01 0.669E+00 0.372E+04   0.123E-01 -.670E+00 -.372E+04   0.167E-02 0.574E-03 0.374E-01   -.412E-05 -.434E-05 -.251E-04
   0.369E+02 0.445E+02 -.349E+04   -.370E+02 -.445E+02 0.349E+04   0.948E-01 -.642E-03 -.117E+00   -.356E-06 -.130E-05 0.814E-05
   -.300E+00 0.352E+00 0.372E+04   0.302E+00 -.353E+00 -.372E+04   0.168E-02 -.171E-02 0.349E-01   -.240E-06 -.331E-05 -.290E-04
   -.120E+02 0.149E+02 -.352E+04   0.119E+02 -.149E+02 0.352E+04   0.246E-01 0.244E-01 -.522E-01   -.400E-05 -.127E-05 0.671E-05
   -.719E+00 -.298E+02 -.351E+04   0.717E+00 0.298E+02 0.351E+04   -.760E-04 -.302E-01 -.452E-01   -.851E-06 -.173E-05 0.764E-05
   0.350E+00 0.148E+00 0.372E+04   -.349E+00 -.149E+00 -.372E+04   0.138E-02 0.197E-02 0.394E-01   -.513E-06 0.743E-06 -.275E-04
   0.949E+00 -.856E+00 0.119E+03   -.950E+00 0.854E+00 -.119E+03   0.353E-03 0.129E-02 0.303E-02   -.601E-06 -.687E-06 -.386E-05
   -.187E+01 0.290E+01 0.123E+03   0.187E+01 -.290E+01 -.123E+03   -.191E-02 0.200E-02 0.255E-02   -.298E-06 0.268E-05 -.215E-05
   -.374E+01 -.932E+02 -.341E+04   0.380E+01 0.932E+02 0.341E+04   -.568E-01 -.211E-01 -.322E-01   0.430E-05 0.107E-04 0.131E-04
   -.464E+00 -.140E+01 0.372E+04   0.464E+00 0.139E+01 -.372E+04   0.529E-02 0.308E-02 0.413E-01   0.211E-05 0.525E-05 -.174E-04
   0.115E+01 -.207E+01 0.123E+03   -.116E+01 0.206E+01 -.123E+03   0.680E-02 0.360E-03 0.418E-02   -.162E-05 -.144E-05 -.799E-05
   -.242E+00 0.690E+00 0.373E+04   0.240E+00 -.692E+00 -.373E+04   -.208E-03 0.524E-03 0.424E-01   0.159E-06 -.589E-05 -.215E-04
   -.633E+01 0.849E+02 -.345E+04   0.625E+01 -.852E+02 0.345E+04   0.833E-01 0.255E+00 0.411E-01   -.114E-05 -.189E-06 0.114E-04
   0.543E+02 0.356E+01 -.346E+04   -.543E+02 -.244E+01 0.346E+04   -.244E-01 -.113E+01 0.673E+00   0.139E-05 -.950E-07 0.157E-04
   -.172E+00 -.563E+00 0.372E+04   0.173E+00 0.560E+00 -.372E+04   -.703E-03 0.351E-02 0.406E-01   0.143E-06 0.412E-05 -.838E-05
   0.106E+01 -.101E+01 0.123E+03   -.106E+01 0.102E+01 -.123E+03   -.728E-02 -.153E-01 0.200E-02   -.105E-05 -.237E-06 -.824E-05
   -.846E+00 0.172E+01 0.124E+03   0.850E+00 -.172E+01 -.124E+03   -.967E-02 0.583E-03 0.523E-02   -.155E-05 0.599E-06 -.528E-05
   -.563E+00 0.932E+00 0.372E+04   0.565E+00 -.932E+00 -.372E+04   -.353E-02 0.114E-02 0.428E-01   0.351E-05 -.221E-05 -.118E-04
   -.169E+02 0.449E+02 -.339E+04   0.173E+02 -.458E+02 0.339E+04   -.327E+00 0.856E+00 0.117E+01   0.437E-05 -.590E-05 0.128E-04
   0.430E+02 -.217E+00 -.335E+04   -.428E+02 -.416E+00 0.335E+04   -.245E+00 0.635E+00 0.677E+00   -.533E-05 -.873E-05 0.970E-05
   0.118E+00 0.780E+00 0.372E+04   -.119E+00 -.783E+00 -.372E+04   0.298E-02 0.251E-02 0.432E-01   -.264E-05 -.288E-05 -.133E-04
   0.884E-02 0.414E+00 0.126E+03   -.798E-02 -.413E+00 -.126E+03   -.134E-03 -.270E-02 0.586E-02   0.769E-06 0.107E-05 -.466E-05
   -.674E+00 0.119E+00 0.125E+03   0.673E+00 -.118E+00 -.125E+03   0.136E-02 -.318E-03 -.347E-02   -.208E-05 -.457E-06 -.724E-05
   0.606E+00 0.148E+00 0.372E+04   -.605E+00 -.150E+00 -.372E+04   -.409E-02 0.244E-02 0.411E-01   0.500E-06 -.212E-05 -.295E-04
   -.473E+01 0.235E+02 -.353E+04   0.473E+01 -.235E+02 0.353E+04   -.135E-02 0.317E-01 -.185E-01   0.101E-05 -.602E-06 0.687E-05
   -.260E+01 -.149E+01 0.118E+03   0.260E+01 0.149E+01 -.118E+03   -.128E-02 0.167E-02 0.296E-02   0.740E-06 -.270E-06 -.196E-05
   0.562E+02 0.164E+02 -.348E+04   -.561E+02 -.163E+02 0.348E+04   -.771E-01 -.275E-01 -.500E-01   -.442E-06 -.200E-05 0.799E-05
   -.194E+02 0.203E+02 -.353E+04   0.194E+02 -.203E+02 0.353E+04   -.347E-01 -.118E-01 -.473E-01   0.721E-06 0.486E-06 0.856E-05
   -.356E+00 -.363E+00 0.372E+04   0.352E+00 0.365E+00 -.372E+04   0.898E-03 -.182E-02 0.376E-01   0.240E-05 -.143E-05 -.293E-04
   0.535E+00 0.181E+01 0.118E+03   -.534E+00 -.181E+01 -.118E+03   -.388E-02 0.413E-02 0.467E-02   -.586E-06 -.612E-06 -.181E-05
   -.153E+01 0.239E+01 0.124E+03   0.154E+01 -.239E+01 -.124E+03   -.256E-02 0.537E-02 0.815E-02   -.223E-05 0.102E-05 -.294E-05
   -.675E+02 0.467E+02 -.344E+04   0.674E+02 -.467E+02 0.344E+04   0.444E-01 -.248E-01 -.380E-01   0.460E-05 -.377E-05 0.117E-04
   0.774E+01 -.770E+01 -.353E+04   -.772E+01 0.771E+01 0.353E+04   -.198E-01 -.124E-01 -.504E-01   0.232E-05 0.410E-06 0.820E-05
   0.277E+00 0.118E+00 0.372E+04   -.278E+00 -.116E+00 -.372E+04   -.339E-02 -.593E-02 0.395E-01   0.709E-06 0.997E-06 -.285E-04
   -.295E+02 0.629E+02 -.350E+04   0.296E+02 -.630E+02 0.350E+04   -.102E+00 0.593E-01 -.973E-01   0.329E-05 -.508E-06 0.114E-04
   0.585E+00 -.501E+00 0.114E+03   -.594E+00 0.493E+00 -.114E+03   0.552E-02 0.680E-02 -.344E-02   0.503E-06 -.227E-05 -.311E-05
   0.302E+02 -.277E+02 -.353E+04   -.302E+02 0.277E+02 0.353E+04   0.268E-01 0.204E-01 0.968E-02   -.440E-06 0.218E-05 0.879E-05
[...]
   -.109E+02 0.199E+01 -.738E+03   0.109E+02 -.200E+01 0.734E+03   -.426E-02 -.200E-02 0.411E+01   0.158E-05 -.121E-05 0.193E-05
   0.363E+02 0.948E+02 -.199E+04   -.395E+02 -.104E+03 0.198E+04   0.318E+01 0.940E+01 0.402E+01   0.207E-05 -.180E-05 0.901E-05
   0.302E+02 -.303E+02 -.119E+04   -.308E+02 0.321E+02 0.119E+04   0.596E+00 -.187E+01 0.245E+01   0.739E-06 0.137E-05 -.587E-05
   -.380E+01 -.228E+02 -.122E+04   -.299E+01 0.204E+02 0.122E+04   0.679E+01 0.235E+01 -.406E+01   0.882E-05 0.460E-05 -.106E-04
   0.456E+02 0.117E+02 -.105E+04   -.402E+02 -.928E+01 0.104E+04   -.539E+01 -.235E+01 0.488E+01   0.614E-05 0.395E-05 -.162E-04
   -.427E+02 -.227E+02 -.109E+04   0.360E+02 0.208E+02 0.108E+04   0.670E+01 0.193E+01 0.326E+01   -.311E-05 0.745E-06 -.150E-04
   -.552E+01 -.324E+00 -.984E+03   0.426E+01 0.764E+00 0.976E+03   0.123E+01 -.429E+00 0.778E+01   -.165E-05 0.198E-05 -.171E-04
   0.409E+02 -.103E+02 -.118E+04   -.335E+02 0.130E+02 0.119E+04   -.742E+01 -.278E+01 -.236E+01   -.625E-05 -.945E-06 -.960E-05
   -.443E+03 -.140E+03 -.192E+04   0.493E+03 0.155E+03 0.194E+04   -.502E+02 -.152E+02 -.214E+02   -.700E-05 0.394E-05 -.378E-04
   -.804E+02 0.351E+02 -.174E+04   0.898E+02 -.393E+02 0.179E+04   -.941E+01 0.431E+01 -.566E+02   -.979E-05 0.972E-05 -.367E-04
   0.369E+03 0.167E+03 -.185E+04   -.410E+03 -.186E+03 0.188E+04   0.412E+02 0.193E+02 -.339E+02   0.140E-04 0.722E-05 -.378E-04
   0.416E+03 0.123E+03 -.211E+04   -.465E+03 -.139E+03 0.209E+04   0.494E+02 0.163E+02 0.191E+02   -.135E-04 -.417E-05 -.146E-04
   -.337E+03 -.132E+03 -.217E+04   0.381E+03 0.148E+03 0.214E+04   -.437E+02 -.157E+02 0.289E+02   0.147E-04 0.760E-05 -.612E-05
   0.594E+00 0.118E+02 -.330E+03   -.428E+00 -.121E+02 0.331E+03   -.167E+00 0.274E+00 -.132E+01   -.291E-06 -.521E-06 0.155E-05
   0.807E+01 -.165E+02 0.431E+02   -.140E-11 -.395E-11 -.121E-10   -.816E+01 0.165E+02 -.429E+02   0.559E-05 0.390E-04 -.101E-02

 POSITION                                       TOTAL-FORCE (eV/Angst)
      1.57391     -0.93509     18.19811        -0.000032     -0.000005      0.003292
     11.07672      0.87969     24.40954         0.004733      0.002367      0.013643
      9.49083      9.10214     24.36930         0.005334     -0.001817      0.000039
      9.48520      9.12735     12.00362         0.000793     -0.000371     -0.000617
      9.48305      7.28916     18.19779         0.000371      0.000795      0.003618
     12.65044      1.80889     18.19714        -0.000567      0.001338     -0.000477
     12.64999      3.64710     12.00424        -0.002236      0.000011      0.002159
     12.65631      3.61686     24.37581         0.002974     -0.001589      0.005493
      7.90740      6.36494     24.38334         0.001531      0.002559      0.011702
      7.90092      6.38651     12.00437         0.001775     -0.001599      0.004946
     11.06636      0.90701     12.00500        -0.000982      0.001335     -0.000192
      7.90119      4.54744     18.19848         0.003613     -0.001318      0.005405
      6.32765      3.62850     24.42259         0.004161     -0.004605      0.011937
      6.31967      3.64514     12.00528        -0.002179     -0.002760      0.005414
      6.32231      1.80602     18.19653         0.001294     -0.000769      0.001669
      7.90322    -10.05552     12.00442        -0.002068     -0.003046      0.001069
      7.91062    -10.08677     24.37964        -0.001637      0.000091      0.007489
      4.75213      0.87023     24.43119         0.003030     -0.002855      0.001991
      4.73633      0.90601     12.00447        -0.001767      0.001977      0.001876
      4.73931     -0.93435     18.19946         0.000103      0.002842     -0.002237
      9.48656     -9.15491     18.19710         0.004809     -0.000517     -0.007330
      6.32076     -9.15455     18.19801        -0.000993     -0.005204     -0.000240
      4.73812     -6.41442     18.19638         0.002804     -0.004000      0.001716
      4.73830     -4.57470     12.00122         0.000692     -0.000597     -0.000433
      4.74332     -4.61209     24.36213        -0.000860      0.000399     -0.004529
      6.32014     -7.31453     12.00188         0.003942     -0.002385     -0.003879
      6.32466     -7.34640     24.36454         0.002647     -0.003119     -0.001857
     11.07536      6.36187     24.36688        -0.001977      0.001931      0.003903
     11.06612      6.38679     12.00270         0.003047      0.000807      0.000805
     11.06674      4.54907     18.19913        -0.000619     -0.000732      0.000636
      7.90194     -6.41467     18.19619        -0.001849     -0.000337     -0.005704
      9.49020      3.64409     24.38572         0.000629     -0.004757      0.013512
      9.48420      3.64660     12.00515         0.005606     -0.001894      0.003882
      9.48583      1.80842     18.19579        -0.000592     -0.005359      0.006406
      7.90267     -4.57367     11.99805        -0.001906     -0.001948      0.000470
      7.90143     -4.60570     24.35168         0.005089      0.005027      0.004922
      7.92140      0.87835     24.56042         0.002395     -0.004859      0.015312
      7.90160      0.90580     12.00454         0.001450     -0.000455      0.002488
      7.90382     -0.93204     18.19778         0.001099     -0.004987      0.001881
      9.48560     -3.67246     18.19774        -0.005068      0.003352     -0.004911
      9.48445     -1.83363     11.99969        -0.001576      0.000877      0.002839
      9.47585     -1.89065     24.40272        -0.001148     -0.002350      0.006417
      6.32410     -1.92728     24.32888        -0.006927      0.002353     -0.002533
      6.32053     -1.83363     12.00241         0.002413     -0.000531      0.004911
      6.32111     -3.67318     18.19781         0.001114     -0.001020     -0.001557
     11.06801     -0.93011     18.19652         0.000894     -0.000081     -0.001422
      9.48478     -7.31484     12.00321        -0.002260      0.000662      0.001766
      9.49170     -7.34426     24.37691        -0.002575      0.003911      0.006913
      7.90512    -11.89570     18.19787        -0.002962     -0.001215      0.000585
      3.16296     -1.86216     24.37191         0.006308     -0.001888     -0.003823
      6.32741      9.10264     24.37478        -0.001257      0.001796      0.008523
      6.32019      9.12660     12.00391        -0.001973      0.000138     -0.000396
      6.31825      7.28872     18.19730        -0.002662     -0.000779      0.003021
     12.64797     -3.67220     18.19530         0.004881      0.002801      0.002857
     12.66548     -1.86638     24.36539         0.000089     -0.005349      0.020063
      4.74322      6.36371     24.38514         0.000403     -0.006034      0.001690
      4.73699      6.38603     12.00401        -0.003621     -0.004237      0.000732
     11.07316     -4.60247     24.38129         0.000170      0.002990      0.013950
      4.73908      4.54657     18.19912        -0.003069     -0.002096     -0.004574
      3.16433      3.61750     24.40038        -0.002094      0.004137      0.003963
[...]
      4.74242     -6.43724     22.79189        -0.017280      0.007225     -0.001876
     14.24156     -0.94507     22.80077        -0.002649     -0.007519     -0.006204
      8.04606     -0.61852     26.72758         0.016435     -0.011144      0.023569
      8.33005     -0.02213     28.42274         0.006434     -0.000004     -0.012346
      9.55014      0.35160     29.01532        -0.004803     -0.009806      0.011932
      7.52480     -0.52725     30.69792        -0.018473      0.030915     -0.017407
      9.76295      0.29614     30.39226        -0.004815     -0.006747      0.004287
      8.75786     -0.16302     31.23924        -0.026981      0.011124     -0.024159
      7.32361     -0.43305     29.32368        -0.017053     -0.009459      0.004730
     10.95672      0.65540     30.90548        -0.002868     -0.001434      0.001520
      8.97630     -0.26139     32.56005        -0.015742      0.031825      0.029156
      6.54790     -0.98399     31.50620        -0.015912      0.042371     -0.019088
      6.11942     -0.83480     28.85424        -0.002967      0.015387     -0.019589
     10.62418      0.73438     28.28705         0.009187     -0.015079     -0.002957
      7.83525     -1.89655     25.27960        -0.000462     -0.014548      0.000312
    total drift:                               -0.092836      0.021770      0.267299

  FREE ENERGIE OF THE ION-ELECTRON SYSTEM (eV)
  free  energy   TOTEN  =     -1270.80472126 eV

  energy  without entropy=    -1270.80472126  energy(sigma->0) =    -1270.80472126

 stress matrix after NEB project (eV)
      2.18825      0.46709     -0.58986
      0.46709      3.27057      1.47366
     -0.58986      1.47367     -0.83015
  FORCES: max atom, RMS     0.049121    0.010335
  FORCE total and by dimension    0.159112    0.042371
  Stress total and by dimension    4.652939    3.270574

 reached required accuracy - stopping structural energy minimisation