 vasp.6.3.2 27Jun22 (build Jan 03 2024 23:05:41) complex

 executed on           IFC15_impi date 2024.07.31  07:42:56

 INCAR:
   ENCUT = 600.00
   EDIFF = 1.00e-06
   IBRION = -1
   NSW = 0
   ALGO = Normal
   ISMEAR = -5
   LORBIT = 11
   LCHARG = .TRUE.
   LWAVE = .FALSE.
   LREAL = Auto
   NELM = 2000
   NCORE = 16
   KPAR = 8
   ISPIN = 2
   GGA = MK
   PARAM1 = 0.1234
   PARAM2 = 1.0
   AGGAC = 0.0
   LUSE_VDW = .TRUE.
   LASPH = .TRUE.
   LDIPOL = .TRUE.
   DIPOL = 0.5 0.5 0.5
   IDIPOL = 3

 POTCAR:    PAW_PBE Mo_sv 02Feb2006
 POTCAR:    PAW_PBE S 06Sep2000
|           W    W    AA    RRRRR   N    N  II  N    N   GGGG   !!!           |
|           W    W   A  A   R    R  NN   N  II  NN   N  G    G  !!!           |
|           W    W  A    A  R    R  N N  N  II  N N  N  G       !!!           |
|           W WW W  AAAAAA  RRRRR   N  N N  II  N  N N  G  GGG   !            |
|           WW  WW  A    A  R   R   N   NN  II  N   NN  G    G                |
|           W    W  A    A  R    R  N    N  II  N    N   GGGG   !!!           |
|     You use a magnetic or noncollinear calculation, but did not specify     |
|     the initial magnetic moment with the MAGMOM tag. Note that a            |
|     default of 1 will be used for all atoms. This ferromagnetic setup       |
|     may break the symmetry of the crystal, in particular it may rule        |
|     out finding an antiferromagnetic solution. Thence, we recommend         |
|     setting the initial magnetic moment manually or verifying carefully     |
|     that this magnetic setup is desired.                                    |

   TITEL  = PAW_PBE Mo_sv 02Feb2006
   POMASS =   95.940; ZVAL   =   14.000    mass and valenz
   ENMAX  =  242.676; ENMIN  =  182.007 eV

   TITEL  = PAW_PBE S 06Sep2000
   POMASS =   32.066; ZVAL   =    6.000    mass and valenz
   ENMAX  =  258.689; ENMIN  =  194.016 eV

 Optimization of the real space projectors (new method)

 maximal supplied QI-value         = 15.12
 optimisation between [QCUT,QGAM] = [ 12.55, 25.10] = [ 44.09,176.36] Ry
 Optimized for a Real-space Cutoff    1.47 Angstroem

   l    n(q)    QCUT    max X(q) W(low)/X(q) W(high)/X(q)  e(spline)
   0     11    12.548     3.559    0.18E-04    0.60E-05    0.19E-06
   0     11    12.548    20.730    0.37E-04    0.13E-04    0.98E-07
   1     11    12.548     3.279    0.80E-06    0.70E-06    0.27E-07
   1     11    12.548     4.693    0.72E-04    0.11E-03    0.38E-06
   2     10    12.548    67.616    0.34E-03    0.45E-03    0.54E-06
   2     10    12.548    62.420    0.34E-03    0.45E-03    0.54E-06
 Optimization of the real space projectors (new method)

 maximal supplied QI-value         = 19.84
 optimisation between [QCUT,QGAM] = [ 12.50, 25.00] = [ 43.76,175.03] Ry
 Optimized for a Real-space Cutoff    1.06 Angstroem

   l    n(q)    QCUT    max X(q) W(low)/X(q) W(high)/X(q)  e(spline)
   0      8    12.501   187.594    0.26E-03    0.17E-03    0.97E-07
   0      8    12.501   164.243    0.26E-03    0.17E-03    0.96E-07
   1      7    12.501    67.533    0.50E-03    0.61E-03    0.91E-07
   1      7    12.501    50.729    0.48E-03    0.60E-03    0.90E-07
|               ----> ADVICE to this user running VASP <----                  |
|     You enforced a specific xc type in the INCAR file but a different       |
|     type was found in the POTCAR file.                                      |
|     I HOPE YOU KNOW WHAT YOU ARE DOING!                                     |

  PAW_PBE Mo_sv 02Feb2006               :
  PAW_PBE S 06Sep2000                   :

 POSCAR: Mo S
  positions in direct lattice
  velocities in cartesian coordinates
 exchange correlation table for  LEXCH =       43
   RHO(1)=    0.500       N(1)  =     2000
   RHO(2)=  100.500       N(2)  =     4000

 VTST: version 4.1, (05/19/21)

 CHAIN: initializing optimizer

 OPT: Using VASP Dynamics algorithm
 CHAIN: Read ICHAIN            0

 POSCAR: Mo S
  positions in direct lattice
  velocities in cartesian coordinates

 ion  position               nearest neighbor table
   1  0.667  0.733  0.500-  37 2.41  66 2.41  39 2.41  65 2.41  36 2.41  40 2.41  11 3.16   3 3.16
                            13 3.16  23 3.16  19 3.16  14 3.16
   2  0.267  0.933  0.500-  72 2.41  48 2.41  49 2.41  71 2.41  47 2.41  51 2.41  25 3.16   4 3.16
                            18 3.16  10 3.16  17 3.16   8 3.16
   3  0.667  0.933  0.500-  37 2.41  45 2.41  32 2.41  36 2.41  67 2.41  33 2.41  10 3.16   1 3.16
                            11 3.16   9 3.16  23 3.16   6 3.16
   4  0.267  0.733  0.500-  46 2.41  72 2.41  70 2.41  52 2.41  71 2.41  69 2.41  18 3.16   2 3.16
                            20 3.16  10 3.16   5 3.16  11 3.16
   5  0.267  0.533  0.500-  68 2.41  58 2.41  70 2.41  60 2.41  57 2.41  69 2.41  20 3.16   7 3.16
                            22 3.16   4 3.16  13 3.16  11 3.16
   6  0.867  0.133  0.500-  30 2.41  32 2.41  42 2.41  35 2.41  33 2.41  29 2.41  23 3.16  24 3.16
                             9 3.16  16 3.16   3 3.16  22 3.16
   7  0.267  0.333  0.500-  56 2.41  68 2.41  59 2.41  55 2.41  60 2.41  50 2.41  22 3.16   5 3.16
                            24 3.16  13 3.16  15 3.16  17 3.16
   8  0.467  0.133  0.500-  74 2.41  62 2.41  49 2.41  73 2.41  51 2.41  61 2.41   9 3.16  12 3.16
                            10 3.16  15 3.16  17 3.16   2 3.16
   9  0.667  0.133  0.500-  32 2.41  28 2.41  74 2.41  33 2.41  73 2.41  26 2.41   8 3.16  10 3.16
                             3 3.16   6 3.16  12 3.16  16 3.16
  10  0.467  0.933  0.500-  45 2.41  72 2.41  74 2.41  67 2.41  71 2.41  73 2.41   3 3.16  11 3.16
                             9 3.16   4 3.16   2 3.16   8 3.16
  11  0.467  0.733  0.500-  66 2.41  45 2.41  70 2.41  65 2.41  69 2.41  67 2.41   1 3.16  10 3.16
                             3 3.16   4 3.16  13 3.16   5 3.16
  12  0.667  0.333  0.500-  43 2.41  62 2.41  28 2.41  61 2.41  44 2.41  26 2.41  15 3.16  14 3.16
                             8 3.16  21 3.16  16 3.16   9 3.16
  13  0.467  0.533  0.500-  64 2.41  66 2.41  68 2.41  63 2.41  60 2.41  65 2.41  14 3.16  15 3.16
                             1 3.16   7 3.16   5 3.16  11 3.16
  14  0.667  0.533  0.500-  43 2.41  39 2.41  64 2.41  44 2.41  63 2.41  40 2.41  13 3.16  12 3.16
                            15 3.16   1 3.16  21 3.16  19 3.16
  15  0.467  0.333  0.500-  62 2.41  59 2.41  64 2.41  61 2.41  50 2.41  63 2.41  12 3.16  13 3.16
                            14 3.16   8 3.16   7 3.16  17 3.16
  16  0.867  0.333  0.500-  42 2.41  41 2.41  28 2.41  29 2.41  26 2.41  38 2.41  21 3.16  20 3.16
                             6 3.16  12 3.16  22 3.16   9 3.16
  17  0.267  0.133  0.500-  49 2.41  54 2.41  59 2.41  51 2.41  53 2.41  50 2.41  24 3.16  25 3.16
                             8 3.16   2 3.16   7 3.16  15 3.16
  18  0.067  0.733  0.500-  46 2.41  48 2.41  27 2.41  52 2.41  47 2.41  31 2.41   4 3.16  25 3.16
                             2 3.16  20 3.16  19 3.16  21 3.16
  19  0.867  0.733  0.500-  27 2.41  39 2.41  75 2.41  31 2.41  40 2.41  34 2.41  23 3.16  25 3.16
                            21 3.16   1 3.16  18 3.16  14 3.16
  20  0.067  0.533  0.500-  58 2.41  46 2.41  41 2.41  57 2.41  52 2.41  38 2.41   5 3.16  22 3.16
                             4 3.16  16 3.16  21 3.16  18 3.16
  21  0.867  0.533  0.500-  41 2.41  27 2.41  43 2.41  38 2.41  44 2.41  31 2.41  16 3.16  12 3.16
                            14 3.16  19 3.16  20 3.16  18 3.16
  22  0.067  0.333  0.500-  56 2.41  58 2.41  42 2.41  55 2.41  57 2.41  29 2.41   7 3.16  20 3.16
                             5 3.16  16 3.16  24 3.16   6 3.16
  23  0.867  0.933  0.500-  75 2.41  37 2.41  30 2.41  34 2.41  36 2.41  35 2.41  19 3.16   1 3.16
                             6 3.16   3 3.16  25 3.16  24 3.16
  24  0.067  0.133  0.500-  54 2.41  56 2.41  30 2.41  53 2.41  55 2.41  35 2.41  17 3.16   7 3.16
                             6 3.16  22 3.16  25 3.16  23 3.16
  25  0.067  0.933  0.500-  48 2.41  75 2.41  54 2.41  47 2.41  34 2.41  53 2.41   2 3.16  18 3.16
                            17 3.16  19 3.16  23 3.16  24 3.16
  26  0.733  0.267  0.568-  16 2.41   9 2.41  12 2.41
  27  0.933  0.667  0.432-  19 2.41  21 2.41  18 2.41
  28  0.733  0.267  0.432-   9 2.41  16 2.41  12 2.41
  29  0.933  0.267  0.568-  16 2.41   6 2.41  22 2.41
  30  0.933  0.067  0.432-   6 2.41  24 2.41  23 2.41
  31  0.933  0.667  0.568-  19 2.41  21 2.41  18 2.41
  32  0.733  0.067  0.432-   9 2.41   6 2.41   3 2.41
  33  0.733  0.067  0.568-   9 2.41   6 2.41   3 2.41
  34  0.933  0.867  0.568-  23 2.41  19 2.41  25 2.41
  35  0.933  0.067  0.568-   6 2.41  24 2.41  23 2.41
  36  0.733  0.867  0.568-   3 2.41  23 2.41   1 2.41
  37  0.733  0.867  0.432-   3 2.41   1 2.41  23 2.41
  38  0.933  0.467  0.568-  21 2.41  16 2.41  20 2.41
  39  0.733  0.667  0.432-  14 2.41  19 2.41   1 2.41
  40  0.733  0.667  0.568-  19 2.41  14 2.41   1 2.41
  41  0.933  0.467  0.432-  21 2.41  16 2.41  20 2.41
  42  0.933  0.267  0.432-  16 2.41   6 2.41  22 2.41
  43  0.733  0.467  0.432-  14 2.41  12 2.41  21 2.41
  44  0.733  0.467  0.568-  14 2.41  21 2.41  12 2.41
  45  0.533  0.867  0.432-  10 2.41   3 2.41  11 2.41
  46  0.133  0.667  0.432-  18 2.41   4 2.41  20 2.41
  47  0.133  0.867  0.568-  25 2.41   2 2.41  18 2.41
  48  0.133  0.867  0.432-  25 2.41  18 2.41   2 2.41
  49  0.333  0.067  0.432-  17 2.41   8 2.41   2 2.41
  50  0.333  0.267  0.568-  15 2.41  17 2.41   7 2.41
  51  0.333  0.067  0.568-  17 2.41   8 2.41   2 2.41
  52  0.133  0.667  0.568-  18 2.41   4 2.41  20 2.41
  53  0.133  0.067  0.568-  24 2.41  17 2.41  25 2.41
  54  0.133  0.067  0.432-  24 2.41  17 2.41  25 2.41
  55  0.133  0.267  0.568-  22 2.41   7 2.41  24 2.41
  56  0.133  0.267  0.432-  22 2.41   7 2.41  24 2.41
  57  0.133  0.467  0.568-  20 2.41   5 2.41  22 2.41
  58  0.133  0.467  0.432-  20 2.41   5 2.41  22 2.41
  59  0.333  0.267  0.432-  15 2.41  17 2.41   7 2.41
  60  0.333  0.467  0.568-   5 2.41  13 2.41   7 2.41
  61  0.533  0.267  0.568-  15 2.41  12 2.41   8 2.41
  62  0.533  0.267  0.432-  15 2.41  12 2.41   8 2.41
  63  0.533  0.467  0.568-  13 2.41  14 2.41  15 2.41
  64  0.533  0.467  0.432-  13 2.41  14 2.41  15 2.41
  65  0.533  0.667  0.568-  11 2.41   1 2.41  13 2.41
  66  0.533  0.667  0.432-  11 2.41   1 2.41  13 2.41
  67  0.533  0.867  0.568-  10 2.41   3 2.41  11 2.41
  68  0.333  0.467  0.432-   5 2.41   7 2.41  13 2.41
  69  0.333  0.667  0.568-  11 2.41   5 2.41   4 2.41
  70  0.333  0.667  0.432-   5 2.41  11 2.41   4 2.41
  71  0.333  0.867  0.568-   2 2.41  10 2.41   4 2.41
  72  0.333  0.867  0.432-   2 2.41   4 2.41  10 2.41
  73  0.533  0.067  0.568-   8 2.41   9 2.41  10 2.41
  74  0.533  0.067  0.432-   8 2.41   9 2.41  10 2.41
  75  0.933  0.867  0.432-  23 2.41  19 2.41  25 2.41

  LATTYP: Found a hexagonal cell.
 ALAT       =    15.8227970706
 C/A-ratio  =     1.4623157837

  Lattice vectors:

 A1 = (   7.9113985353, -13.7029442220,   0.0000000000)
 A2 = (   7.9113985353,  13.7029442220,   0.0000000000)
 A3 = (   0.0000000000,   0.0000000000,  23.1379258980)

Analysis of symmetry for initial positions (statically):
 Subroutine PRICEL returns following result:

[...]

[...]
  315          fft3d_mpi                             0.031250                          3   4
  316            fftbrc_mpi                            0.029557                        3   5
  317              fftbas_plan_mpi                       0.029545                      3   6
  318                dfftw_execute                         0.007307                    9   7
  319                map_backward                          0.007802                    2   7
  320                  map_gather                            0.000887                  1   8
  321                  m_alltoallv_z                         0.002848                  1   8
  322                  map_scatter                           0.004039                  1   8
  323                map_forward                           0.012553                    4   7
  324                  map_gather                            0.005283                  2   8
  325                  m_alltoallv_z                         0.005943                  2   8
  326                  map_scatter                           0.001283                  2   8
  327          m_sumb_d                              0.000097                          2   4
  328          pothar                                0.003287                          1   4
  329            m_sumb_d                              0.000593                        1   5
  330        brmix                                 0.574349                            1   3
  331          m_sumb_d                              0.001951                          6   4
  332          brpre                                 0.000332                          2   4
  333          setg0                                 0.006559                          1   4
  334          broyd                                 0.047719                          1   4
  335            m_sumb_d                              0.003698                       35   5
  336            brget                                 0.009942                      177   5
  337            brsav                                 0.003574                       33   5
  338          m_bcast_z                             0.507894                          1   4
  339          m_bcast_d                             0.000370                          1   4
  340        m_bcast_d                             0.008240                            2   3
  341      potlok                                6.484744                              1   2
  342        fft3d_mpi                             0.897979                           86   3
  343          fftbrc_mpi                            0.851503                         86   4
  344            fftbas_plan_mpi                       0.851179                       86   5
  345              dfftw_execute                         0.208598                    258   6
  346              map_forward                           0.264784                     88   6
  347                map_gather                            0.074559                   46   7
  348                m_alltoallv_z                         0.158361                   46   7
  349                map_scatter                           0.030861                   46   7
  350              map_backward                          0.325026                     84   6
  351                map_gather                            0.032222                   42   7
  352                m_alltoallv_z                         0.164091                   42   7
  353                map_scatter                           0.127900                   42   7
  354        m_sumb_d                              0.017944                            8   3
  355        fewald                                0.001533                            2   3
  356          rsp                                   0.001316                          2   4
  357          rcp                                   0.000190                          2   4
  358        pothar                                0.002474                            1   3
  359          m_sumb_d                              0.000782                          1   4
  360        m_bcast_d                             0.003610                            2   3
  361      potlok_metagga                        0.000001                              1   2
  362      set_dd_magatom                        0.000001                              1   2
  363      set_dd_paw                            2.779533                              1   2
  364        set_rsgf_all                          0.000001                            1   3
  365        m_sumb_d                              2.779185                            8   3
  366      densta                              135.089566                              1   2
  367        m_bcast_z                             0.000749                            1   3

 Flat profile

 total_time                            603.568136           1
 ggemm                                 435.024767       28998
 dfftw_execute                         194.219692      400158
 potlok                                168.849566          30
 densta                                147.186003          34
 m_sumb_d                              132.188847      252605
 orth1                                 126.512411       65666
 eddav                                 102.307516          33
 m_alltoallv_z                          85.245622      133504
 fftbas_plan_mpi                        68.193107      133386
 m_alltoall_d                           64.845479      318776
 set_charge                             53.491146          29
 fftwav_mpi                             50.794992       87384
 m_bcast_z                              48.249227       34809
 map_scatter                            45.855194      133504
 map_gather                             42.583861      133504
 vhamil                                 36.865324       43216
 map_forward                            30.953246      177502
 sphpro_fast                            21.965053           2
 lincom                                 19.266222         136
 lapack                                 15.018703       21870
 crrexp_mul_work_add                    11.856843     3241200
 gemm                                   11.293964     1600950
 rpromu_gemm                             9.018146     1181550
 eccp                                    7.650647       14124
 w1_copy                                 7.592550      129648
 racc0mu                                 7.502550       21346
 crrexp_mul_wave                         6.735961     2599200
 redis_pw                                6.343407      115796
 rpromu                                  5.862893       15754
 pw_charge                               5.609256        9512
 force_and_stress                        5.508925           1
 fftext_mpi                              5.024599       43216
 kinhamil                                3.317526       43216
 apply_precond                           2.659735       29092
 m_bcast_d                               2.281722       43835
 fft3d_mpi                               1.996877      133386
 redis_proj                              1.784602      144892
 setup_precond                           1.630761       14124
 overl                                   1.536790       72312
 augmentation_charge                     1.275156          29
 setdij_                                 1.053305          57
 map_backward                            0.831342       89270
 overl1                                  0.705785       43216
 hamiltmu                                0.598927       21870
 newband                                 0.533905       22002
 phaser                                  0.515467         158
 forhar                                  0.485799           2
 elmin                                   0.421983           1
 fftbas_mpi                              0.403391      130600
 broyd                                   0.344444          29
 brmix                                   0.278204          29
 raccmu_                                 0.268326       21870
 racc0                                   0.257621         524
 soft_charge                             0.242368          29
 forloc                                  0.241002           1
 rpro1                                   0.210137         392
 inisym                                  0.208385           1
 setg0                                   0.206165          31
 rspher_all                              0.158201          14
 stufak                                  0.154466           1
 brget                                   0.143166        2340
 w1_projall                              0.104268       14742
 choleski                                0.099296           4
 brsav                                   0.080785         556
 depsum                                  0.075303          29
 truncate_high_frequency_w1              0.056020       57340
 pothar                                  0.053358          31
 rpro_isp                                0.050890          26
 rsp                                     0.042080          61
 strnlr                                  0.030792           1
 strkin                                  0.026375           1
 strelo                                  0.013204           1
 set_dd_paw                              0.011281          31
 strehar                                 0.010735           1
 chggra                                  0.010091           1
 fornlr                                  0.009954           1
 posmap                                  0.008992           2
 fft_gq                                  0.008260          29
 fftbrc_mpi                              0.007993        2786
 brpre                                   0.007764          58
 fewald                                  0.006651          61
 rcp                                     0.006186          61
 orthch                                  0.005419           1
 brgrid                                  0.003251           1
 vectorpot                               0.000612          30
 crpa_reader                             0.000281           1
 fordep                                  0.000187           1
 potlok_metagga                          0.000182          30
 proall                                  0.000068           1
 set_rsgf_all                            0.000061          31
 set_dd_magatom                          0.000036          31
 rotate_active_occupied_orbital          0.000017           1
 redis_pw_over_bands                     0.000001           1
  summed up times    2608.65980410576

 Accumulative profile

 total_time                           2608.659804           1
 elmin                                1741.270848           1
 eddav                                1351.226341          33
 fft3d_mpi                             470.290325      133386
 fftbas_plan_mpi                       467.882065      133386
 fftbas_mpi                            440.315258      130600
 ggemm                                 435.024767       28998
 fftwav_mpi                            353.194249       87384
 hamiltmu                              221.264475       21870
 potlok                                196.812013          30
 dfftw_execute                         194.219692      400158
 densta                                147.199266          34
 kinhamil                              146.789057       43216
 fftext_mpi                            143.471532       43216
 map_forward                           140.849544      177502
 m_sumb_d                              132.188847      252605
 orth1                                 126.512411       65666
 set_charge                            106.642159          29
 set_dd_paw                             87.067003          31
 m_alltoallv_z                          85.245622      133504
 newband                                76.951209       22002
 m_alltoall_d                           64.845479      318776
 map_backward                           64.619721       89270
 redis_pw                               52.440151      115796
 m_bcast_z                              48.249227       34809
 map_scatter                            45.855194      133504
 soft_charge                            44.995635          29
 map_gather                             42.583861      133504
 force_and_stress                       39.896371           1
 raccmu_                                37.011166       21870
 vhamil                                 36.865324       43216
 racc0mu                                35.548479       21346
 fftbrc_mpi                             27.978191        2786
 rpro_isp                               26.519239          26
 rpromu                                 25.070508       15754
 sphpro_fast                            22.397667           2
 w1_projall                             22.101237       14742
 redis_proj                             20.533336      144892
 lincom                                 19.266222         136
 strnlr                                 18.744789           1
 lapack                                 15.018703       21870
 crrexp_mul_work_add                    11.856843     3241200
 gemm                                   11.293964     1600950
 rpromu_gemm                             9.018146     1181550
 eccp                                    8.406038       14124
 w1_copy                                 7.592550      129648
 crrexp_mul_wave                         6.735961     2599200
 fornlr                                  6.215092           1
 pw_charge                               5.609256        9512
 depsum                                  4.124491          29
 apply_precond                           2.659735       29092
 m_bcast_d                               2.281722       43835
 setup_precond                           2.154556       14124
 brmix                                   2.083483          29
 proall                                  2.070100           1
 augmentation_charge                     2.035431          29
 overl                                   1.536790       72312
 setdij_                                 1.171216          57
 orthch                                  1.135402           1
 overl1                                  0.705785       43216
 broyd                                   0.618531          29
 phaser                                  0.515467         158
 racc0                                   0.488576         524
 forhar                                  0.486080           2
 rpro1                                   0.355274         392
 forloc                                  0.241508           1
 fft_gq                                  0.223053          29
 inisym                                  0.217377           1
 setg0                                   0.206165          31
 rspher_all                              0.158201          14
 stufak                                  0.154466           1
 fewald                                  0.143280          61
 brget                                   0.143166        2340
 fordep                                  0.120466           1
 choleski                                0.099296           4
 pothar                                  0.083954          31
 brsav                                   0.080785         556
 truncate_high_frequency_w1              0.056020       57340
 chggra                                  0.044725           1
 rsp                                     0.042080          61
 strkin                                  0.029540           1
 strelo                                  0.014321           1
 strehar                                 0.013609           1
 posmap                                  0.008992           2
 brpre                                   0.007764          58
 rcp                                     0.006186          61
 brgrid                                  0.003251           1
 vectorpot                               0.000612          30
 crpa_reader                             0.000281           1
 potlok_metagga                          0.000182          30
 set_rsgf_all                            0.000061          31
 set_dd_magatom                          0.000036          31
 rotate_active_occupied_orbital          0.000017           1
 redis_pw_over_bands                     0.000001           1

Profiling took   7.214989  3.595627  0.009735  0.009006 seconds
Profiling took   7.077367 seconds